##TITLE= TP_Ejercicio_1b [300 MHZ ¹H NMR en CDCl₃]
##JCAMP-DX= 5.00
##ORIGIN= LISA RMN DB
##DATA TYPE= NMR SPECTRUM
##DATA CLASS= XYDATA
##$BF1= 300.0
##$SFO1= 300.0
##$NUC1= <1H>
##XUNITS=	PPM
##YUNITS=	Intensity
##NPOINTS=	5749
##FIRSTX=	-0.097007
##LASTX=	11.766770
##FIRSTY=	98.000000
##LASTY=	96.000000
##XFACTOR= 1
##YFACTOR= 1
##MAXY= 2345.000000
##MINY= 96.000000
##DELTAX= 0.002064
##XYDATA=(X++(Y..Y))
-0.097007 98.000000
-0.094943 98.000000
-0.092879 98.000000
-0.090815 98.000000
-0.088751 98.000000
-0.086687 98.000000
-0.084623 98.000000
-0.082559 98.000000
-0.080495 98.000000
-0.078431 98.000000
-0.076367 99.000000
-0.074303 99.000000
-0.072239 99.000000
-0.070175 99.000000
-0.068111 99.000000
-0.066047 99.000000
-0.063983 99.000000
-0.061920 99.000000
-0.059856 99.000000
-0.057792 99.000000
-0.055728 99.000000
-0.053664 99.000000
-0.051600 99.000000
-0.049536 99.000000
-0.047472 99.000000
-0.045408 100.000000
-0.043344 100.000000
-0.041280 100.000000
-0.039216 100.000000
-0.037152 100.000000
-0.035088 101.000000
-0.033024 101.000000
-0.030960 101.000000
-0.028896 102.000000
-0.026832 102.000000
-0.024768 103.000000
-0.022704 103.000000
-0.020640 103.000000
-0.018576 103.000000
-0.016512 103.000000
-0.014448 109.000000
-0.012384 116.000000
-0.010320 112.000000
-0.008256 134.000000
-0.006192 245.000000
-0.004128 313.000000
-0.002064 604.000000
0.000000 251.000000
0.002064 146.000000
0.004128 118.000000
0.006192 115.000000
0.008256 118.000000
0.010320 118.000000
0.012384 111.000000
0.014448 103.000000
0.016512 101.000000
0.018576 101.000000
0.020640 100.000000
0.022704 99.000000
0.024768 99.000000
0.026832 99.000000
0.028896 99.000000
0.030960 99.000000
0.033024 98.000000
0.035088 98.000000
0.037152 98.000000
0.039216 98.000000
0.041280 98.000000
0.043344 98.000000
0.045408 98.000000
0.047472 98.000000
0.049536 98.000000
0.051600 97.000000
0.053664 97.000000
0.055728 97.000000
0.057792 97.000000
0.059856 97.000000
0.061920 97.000000
0.063983 97.000000
0.066047 97.000000
0.068111 97.000000
0.070175 97.000000
0.072239 97.000000
0.074303 97.000000
0.076367 97.000000
0.078431 97.000000
0.080495 97.000000
0.082559 97.000000
0.084623 97.000000
0.086687 97.000000
0.088751 97.000000
0.090815 97.000000
0.092879 97.000000
0.094943 97.000000
0.097007 97.000000
0.099071 97.000000
0.101135 97.000000
0.103199 97.000000
0.105263 97.000000
0.107327 97.000000
0.109391 97.000000
0.111455 97.000000
0.113519 97.000000
0.115583 97.000000
0.117647 97.000000
0.119711 97.000000
0.121775 97.000000
0.123839 96.000000
0.125903 96.000000
0.127967 96.000000
0.130031 96.000000
0.132095 96.000000
0.134159 96.000000
0.136223 96.000000
0.138287 96.000000
0.140351 96.000000
0.142415 96.000000
0.144479 96.000000
0.146543 96.000000
0.148607 96.000000
0.150671 96.000000
0.152735 96.000000
0.154799 96.000000
0.156863 96.000000
0.158927 96.000000
0.160991 96.000000
0.163055 96.000000
0.165119 96.000000
0.167183 96.000000
0.169247 96.000000
0.171311 96.000000
0.173375 96.000000
0.175439 96.000000
0.177503 96.000000
0.179567 96.000000
0.181631 96.000000
0.183695 97.000000
0.185759 97.000000
0.187822 97.000000
0.189886 98.000000
0.191950 98.000000
0.194014 98.000000
0.196078 98.000000
0.198142 98.000000
0.200206 97.000000
0.202270 97.000000
0.204334 96.000000
0.206398 96.000000
0.208462 96.000000
0.210526 96.000000
0.212590 96.000000
0.214654 96.000000
0.216718 96.000000
0.218782 96.000000
0.220846 96.000000
0.222910 96.000000
0.224974 96.000000
0.227038 96.000000
0.229102 96.000000
0.231166 96.000000
0.233230 96.000000
0.235294 97.000000
0.237358 97.000000
0.239422 97.000000
0.241486 97.000000
0.243550 97.000000
0.245614 97.000000
0.247678 97.000000
0.249742 97.000000
0.251806 97.000000
0.253870 96.000000
0.255934 96.000000
0.257998 96.000000
0.260062 96.000000
0.262126 96.000000
0.264190 97.000000
0.266254 97.000000
0.268318 97.000000
0.270382 97.000000
0.272446 97.000000
0.274510 97.000000
0.276574 97.000000
0.278638 97.000000
0.280702 97.000000
0.282766 97.000000
0.284830 96.000000
0.286894 96.000000
0.288958 96.000000
0.291022 96.000000
0.293086 96.000000
0.295150 96.000000
0.297214 96.000000
0.299278 96.000000
0.301342 96.000000
0.303406 96.000000
0.305470 97.000000
0.307534 97.000000
0.309598 97.000000
0.311662 97.000000
0.313725 97.000000
0.315789 97.000000
0.317853 97.000000
0.319917 97.000000
0.321981 97.000000
0.324045 97.000000
0.326109 96.000000
0.328173 96.000000
0.330237 96.000000
0.332301 96.000000
0.334365 97.000000
0.336429 97.000000
0.338493 97.000000
0.340557 97.000000
0.342621 97.000000
0.344685 97.000000
0.346749 97.000000
0.348813 97.000000
0.350877 97.000000
0.352941 97.000000
0.355005 96.000000
0.357069 96.000000
0.359133 96.000000
0.361197 96.000000
0.363261 96.000000
0.365325 96.000000
0.367389 96.000000
0.369453 96.000000
0.371517 96.000000
0.373581 96.000000
0.375645 96.000000
0.377709 96.000000
0.379773 96.000000
0.381837 96.000000
0.383901 96.000000
0.385965 96.000000
0.388029 96.000000
0.390093 96.000000
0.392157 96.000000
0.394221 96.000000
0.396285 96.000000
0.398349 96.000000
0.400413 96.000000
0.402477 96.000000
0.404541 96.000000
0.406605 96.000000
0.408669 96.000000
0.410733 96.000000
0.412797 96.000000
0.414861 96.000000
0.416925 96.000000
0.418989 96.000000
0.421053 96.000000
0.423117 96.000000
0.425181 96.000000
0.427245 96.000000
0.429309 96.000000
0.431373 96.000000
0.433437 96.000000
0.435501 96.000000
0.437564 96.000000
0.439628 96.000000
0.441692 96.000000
0.443756 96.000000
0.445820 96.000000
0.447884 96.000000
0.449948 96.000000
0.452012 96.000000
0.454076 96.000000
0.456140 96.000000
0.458204 96.000000
0.460268 96.000000
0.462332 96.000000
0.464396 96.000000
0.466460 96.000000
0.468524 96.000000
0.470588 96.000000
0.472652 96.000000
0.474716 96.000000
0.476780 96.000000
0.478844 96.000000
0.480908 96.000000
0.482972 96.000000
0.485036 96.000000
0.487100 96.000000
0.489164 96.000000
0.491228 96.000000
0.493292 96.000000
0.495356 96.000000
0.497420 96.000000
0.499484 96.000000
0.501548 96.000000
0.503612 96.000000
0.505676 96.000000
0.507740 96.000000
0.509804 96.000000
0.511868 96.000000
0.513932 96.000000
0.515996 96.000000
0.518060 96.000000
0.520124 96.000000
0.522188 96.000000
0.524252 96.000000
0.526316 96.000000
0.528380 96.000000
0.530444 96.000000
0.532508 96.000000
0.534572 96.000000
0.536636 96.000000
0.538700 96.000000
0.540764 96.000000
0.542828 96.000000
0.544892 96.000000
0.546956 96.000000
0.549020 96.000000
0.551084 96.000000
0.553148 96.000000
0.555212 96.000000
0.557276 96.000000
0.559340 96.000000
0.561404 96.000000
0.563467 96.000000
0.565531 96.000000
0.567595 96.000000
0.569659 96.000000
0.571723 96.000000
0.573787 96.000000
0.575851 96.000000
0.577915 97.000000
0.579979 97.000000
0.582043 97.000000
0.584107 97.000000
0.586171 97.000000
0.588235 97.000000
0.590299 97.000000
0.592363 97.000000
0.594427 96.000000
0.596491 96.000000
0.598555 96.000000
0.600619 96.000000
0.602683 96.000000
0.604747 96.000000
0.606811 96.000000
0.608875 96.000000
0.610939 96.000000
0.613003 96.000000
0.615067 96.000000
0.617131 96.000000
0.619195 96.000000
0.621259 96.000000
0.623323 96.000000
0.625387 96.000000
0.627451 96.000000
0.629515 96.000000
0.631579 96.000000
0.633643 96.000000
0.635707 96.000000
0.637771 96.000000
0.639835 96.000000
0.641899 96.000000
0.643963 96.000000
0.646027 96.000000
0.648091 96.000000
0.650155 96.000000
0.652219 96.000000
0.654283 96.000000
0.656347 96.000000
0.658411 96.000000
0.660475 96.000000
0.662539 96.000000
0.664603 96.000000
0.666667 96.000000
0.668731 96.000000
0.670795 96.000000
0.672859 96.000000
0.674923 96.000000
0.676987 96.000000
0.679051 97.000000
0.681115 97.000000
0.683179 97.000000
0.685243 97.000000
0.687307 97.000000
0.689370 97.000000
0.691434 97.000000
0.693498 97.000000
0.695562 97.000000
0.697626 97.000000
0.699690 96.000000
0.701754 96.000000
0.703818 96.000000
0.705882 96.000000
0.707946 96.000000
0.710010 97.000000
0.712074 97.000000
0.714138 97.000000
0.716202 97.000000
0.718266 97.000000
0.720330 97.000000
0.722394 97.000000
0.724458 97.000000
0.726522 97.000000
0.728586 97.000000
0.730650 97.000000
0.732714 97.000000
0.734778 97.000000
0.736842 97.000000
0.738906 97.000000
0.740970 97.000000
0.743034 97.000000
0.745098 97.000000
0.747162 97.000000
0.749226 96.000000
0.751290 96.000000
0.753354 96.000000
0.755418 96.000000
0.757482 96.000000
0.759546 96.000000
0.761610 96.000000
0.763674 96.000000
0.765738 96.000000
0.767802 96.000000
0.769866 96.000000
0.771930 96.000000
0.773994 96.000000
0.776058 96.000000
0.778122 96.000000
0.780186 96.000000
0.782250 96.000000
0.784314 96.000000
0.786378 96.000000
0.788442 96.000000
0.790506 96.000000
0.792570 96.000000
0.794634 96.000000
0.796698 96.000000
0.798762 96.000000
0.800826 97.000000
0.802890 97.000000
0.804954 97.000000
0.807018 97.000000
0.809082 97.000000
0.811146 97.000000
0.813209 97.000000
0.815273 97.000000
0.817337 97.000000
0.819401 96.000000
0.821465 96.000000
0.823529 96.000000
0.825593 96.000000
0.827657 96.000000
0.829721 96.000000
0.831785 96.000000
0.833849 96.000000
0.835913 96.000000
0.837977 96.000000
0.840041 97.000000
0.842105 97.000000
0.844169 97.000000
0.846233 97.000000
0.848297 97.000000
0.850361 97.000000
0.852425 97.000000
0.854489 97.000000
0.856553 97.000000
0.858617 97.000000
0.860681 97.000000
0.862745 97.000000
0.864809 97.000000
0.866873 97.000000
0.868937 97.000000
0.871001 97.000000
0.873065 97.000000
0.875129 97.000000
0.877193 97.000000
0.879257 97.000000
0.881321 97.000000
0.883385 97.000000
0.885449 97.000000
0.887513 97.000000
0.889577 97.000000
0.891641 97.000000
0.893705 97.000000
0.895769 97.000000
0.897833 97.000000
0.899897 97.000000
0.901961 97.000000
0.904025 97.000000
0.906089 97.000000
0.908153 97.000000
0.910217 96.000000
0.912281 96.000000
0.914345 96.000000
0.916409 96.000000
0.918473 96.000000
0.920537 96.000000
0.922601 96.000000
0.924665 96.000000
0.926729 96.000000
0.928793 96.000000
0.930857 96.000000
0.932921 96.000000
0.934985 96.000000
0.937049 96.000000
0.939112 96.000000
0.941176 96.000000
0.943240 96.000000
0.945304 96.000000
0.947368 96.000000
0.949432 96.000000
0.951496 96.000000
0.953560 96.000000
0.955624 96.000000
0.957688 96.000000
0.959752 96.000000
0.961816 96.000000
0.963880 96.000000
0.965944 96.000000
0.968008 96.000000
0.970072 96.000000
0.972136 96.000000
0.974200 96.000000
0.976264 96.000000
0.978328 96.000000
0.980392 96.000000
0.982456 96.000000
0.984520 96.000000
0.986584 96.000000
0.988648 96.000000
0.990712 96.000000
0.992776 96.000000
0.994840 96.000000
0.996904 96.000000
0.998968 96.000000
1.001032 96.000000
1.003096 96.000000
1.005160 96.000000
1.007224 96.000000
1.009288 96.000000
1.011352 96.000000
1.013416 96.000000
1.015480 96.000000
1.017544 96.000000
1.019608 96.000000
1.021672 96.000000
1.023736 96.000000
1.025800 96.000000
1.027864 96.000000
1.029928 96.000000
1.031992 96.000000
1.034056 96.000000
1.036120 96.000000
1.038184 96.000000
1.040248 96.000000
1.042312 96.000000
1.044376 96.000000
1.046440 96.000000
1.048504 96.000000
1.050568 96.000000
1.052632 96.000000
1.054696 96.000000
1.056760 96.000000
1.058824 96.000000
1.060888 96.000000
1.062951 96.000000
1.065015 96.000000
1.067079 96.000000
1.069143 96.000000
1.071207 96.000000
1.073271 97.000000
1.075335 97.000000
1.077399 97.000000
1.079463 97.000000
1.081527 97.000000
1.083591 97.000000
1.085655 97.000000
1.087719 97.000000
1.089783 97.000000
1.091847 97.000000
1.093911 97.000000
1.095975 97.000000
1.098039 97.000000
1.100103 97.000000
1.102167 97.000000
1.104231 97.000000
1.106295 97.000000
1.108359 97.000000
1.110423 97.000000
1.112487 97.000000
1.114551 97.000000
1.116615 97.000000
1.118679 97.000000
1.120743 97.000000
1.122807 97.000000
1.124871 97.000000
1.126935 97.000000
1.128999 97.000000
1.131063 97.000000
1.133127 98.000000
1.135191 98.000000
1.137255 98.000000
1.139319 98.000000
1.141383 98.000000
1.143447 98.000000
1.145511 98.000000
1.147575 98.000000
1.149639 98.000000
1.151703 98.000000
1.153767 98.000000
1.155831 98.000000
1.157895 98.000000
1.159959 98.000000
1.162023 98.000000
1.164087 98.000000
1.166151 98.000000
1.168215 98.000000
1.170279 98.000000
1.172343 98.000000
1.174407 98.000000
1.176471 98.000000
1.178535 98.000000
1.180599 98.000000
1.182663 98.000000
1.184727 98.000000
1.186791 98.000000
1.188854 98.000000
1.190918 98.000000
1.192982 99.000000
1.195046 99.000000
1.197110 99.000000
1.199174 99.000000
1.201238 99.000000
1.203302 100.000000
1.205366 102.000000
1.207430 111.000000
1.209494 111.000000
1.211558 101.000000
1.213622 101.000000
1.215686 101.000000
1.217750 101.000000
1.219814 101.000000
1.221878 102.000000
1.223942 104.000000
1.226006 105.000000
1.228070 106.000000
1.230134 110.000000
1.232198 110.000000
1.234262 104.000000
1.236326 103.000000
1.238390 102.000000
1.240454 102.000000
1.242518 105.000000
1.244582 105.000000
1.246646 102.000000
1.248710 102.000000
1.250774 101.000000
1.252838 100.000000
1.254902 100.000000
1.256966 99.000000
1.259030 99.000000
1.261094 99.000000
1.263158 99.000000
1.265222 99.000000
1.267286 100.000000
1.269350 100.000000
1.271414 100.000000
1.273478 101.000000
1.275542 101.000000
1.277606 102.000000
1.279670 102.000000
1.281734 102.000000
1.283798 102.000000
1.285862 102.000000
1.287926 102.000000
1.289990 102.000000
1.292054 102.000000
1.294118 102.000000
1.296182 102.000000
1.298246 103.000000
1.300310 103.000000
1.302374 104.000000
1.304438 105.000000
1.306502 105.000000
1.308566 105.000000
1.310630 105.000000
1.312693 105.000000
1.314757 105.000000
1.316821 105.000000
1.318885 104.000000
1.320949 106.000000
1.323013 110.000000
1.325077 110.000000
1.327141 110.000000
1.329205 111.000000
1.331269 111.000000
1.333333 112.000000
1.335397 114.000000
1.337461 114.000000
1.339525 111.000000
1.341589 110.000000
1.343653 114.000000
1.345717 117.000000
1.347781 118.000000
1.349845 119.000000
1.351909 120.000000
1.353973 121.000000
1.356037 123.000000
1.358101 125.000000
1.360165 126.000000
1.362229 127.000000
1.364293 128.000000
1.366357 129.000000
1.368421 130.000000
1.370485 132.000000
1.372549 133.000000
1.374613 134.000000
1.376677 135.000000
1.378741 136.000000
1.380805 138.000000
1.382869 141.000000
1.384933 143.000000
1.386997 144.000000
1.389061 146.000000
1.391125 152.000000
1.393189 156.000000
1.395253 157.000000
1.397317 159.000000
1.399381 162.000000
1.401445 167.000000
1.403509 173.000000
1.405573 173.000000
1.407637 189.000000
1.409701 195.000000
1.411765 228.000000
1.413829 266.000000
1.415893 528.000000
1.417957 1422.000000
1.420021 1849.000000
1.422085 2261.000000
1.424149 1119.000000
1.426213 476.000000
1.428277 321.000000
1.430341 236.000000
1.432405 239.000000
1.434469 271.000000
1.436533 276.000000
1.438596 644.000000
1.440660 1796.000000
1.442724 2303.000000
1.444788 2345.000000
1.446852 555.000000
1.448916 334.000000
1.450980 226.000000
1.453044 196.000000
1.455108 205.000000
1.457172 206.000000
1.459236 150.000000
1.461300 135.000000
1.463364 133.000000
1.465428 127.000000
1.467492 126.000000
1.469556 120.000000
1.471620 117.000000
1.473684 114.000000
1.475748 113.000000
1.477812 112.000000
1.479876 111.000000
1.481940 110.000000
1.484004 109.000000
1.486068 108.000000
1.488132 108.000000
1.490196 108.000000
1.492260 107.000000
1.494324 107.000000
1.496388 106.000000
1.498452 106.000000
1.500516 106.000000
1.502580 106.000000
1.504644 106.000000
1.506708 105.000000
1.508772 105.000000
1.510836 105.000000
1.512900 105.000000
1.514964 105.000000
1.517028 107.000000
1.519092 115.000000
1.521156 116.000000
1.523220 113.000000
1.525284 112.000000
1.527348 110.000000
1.529412 109.000000
1.531476 108.000000
1.533540 104.000000
1.535604 102.000000
1.537668 104.000000
1.539732 107.000000
1.541796 113.000000
1.543860 110.000000
1.545924 107.000000
1.547988 106.000000
1.550052 106.000000
1.552116 105.000000
1.554180 104.000000
1.556244 103.000000
1.558308 102.000000
1.560372 102.000000
1.562436 102.000000
1.564499 102.000000
1.566563 102.000000
1.568627 102.000000
1.570691 102.000000
1.572755 101.000000
1.574819 100.000000
1.576883 100.000000
1.578947 100.000000
1.581011 100.000000
1.583075 101.000000
1.585139 101.000000
1.587203 101.000000
1.589267 101.000000
1.591331 101.000000
1.593395 100.000000
1.595459 100.000000
1.597523 99.000000
1.599587 99.000000
1.601651 99.000000
1.603715 99.000000
1.605779 99.000000
1.607843 100.000000
1.609907 100.000000
1.611971 100.000000
1.614035 100.000000
1.616099 100.000000
1.618163 101.000000
1.620227 101.000000
1.622291 101.000000
1.624355 102.000000
1.626419 102.000000
1.628483 110.000000
1.630547 110.000000
1.632611 104.000000
1.634675 103.000000
1.636739 103.000000
1.638803 102.000000
1.640867 102.000000
1.642931 102.000000
1.644995 102.000000
1.647059 103.000000
1.649123 103.000000
1.651187 113.000000
1.653251 113.000000
1.655315 101.000000
1.657379 101.000000
1.659443 101.000000
1.661507 101.000000
1.663571 101.000000
1.665635 100.000000
1.667699 100.000000
1.669763 100.000000
1.671827 100.000000
1.673891 100.000000
1.675955 99.000000
1.678019 99.000000
1.680083 99.000000
1.682147 99.000000
1.684211 99.000000
1.686275 99.000000
1.688338 99.000000
1.690402 99.000000
1.692466 99.000000
1.694530 99.000000
1.696594 99.000000
1.698658 99.000000
1.700722 99.000000
1.702786 99.000000
1.704850 99.000000
1.706914 99.000000
1.708978 99.000000
1.711042 99.000000
1.713106 99.000000
1.715170 99.000000
1.717234 99.000000
1.719298 99.000000
1.721362 99.000000
1.723426 99.000000
1.725490 99.000000
1.727554 99.000000
1.729618 99.000000
1.731682 99.000000
1.733746 99.000000
1.735810 98.000000
1.737874 98.000000
1.739938 98.000000
1.742002 98.000000
1.744066 98.000000
1.746130 98.000000
1.748194 98.000000
1.750258 98.000000
1.752322 98.000000
1.754386 98.000000
1.756450 98.000000
1.758514 98.000000
1.760578 98.000000
1.762642 98.000000
1.764706 98.000000
1.766770 98.000000
1.768834 98.000000
1.770898 98.000000
1.772962 98.000000
1.775026 98.000000
1.777090 98.000000
1.779154 98.000000
1.781218 98.000000
1.783282 98.000000
1.785346 98.000000
1.787410 98.000000
1.789474 98.000000
1.791538 98.000000
1.793602 98.000000
1.795666 98.000000
1.797730 98.000000
1.799794 98.000000
1.801858 98.000000
1.803922 98.000000
1.805986 98.000000
1.808050 98.000000
1.810114 98.000000
1.812178 98.000000
1.814241 98.000000
1.816305 98.000000
1.818369 98.000000
1.820433 98.000000
1.822497 98.000000
1.824561 98.000000
1.826625 98.000000
1.828689 98.000000
1.830753 98.000000
1.832817 98.000000
1.834881 98.000000
1.836945 98.000000
1.839009 98.000000
1.841073 98.000000
1.843137 98.000000
1.845201 98.000000
1.847265 98.000000
1.849329 98.000000
1.851393 98.000000
1.853457 98.000000
1.855521 98.000000
1.857585 98.000000
1.859649 98.000000
1.861713 98.000000
1.863777 98.000000
1.865841 98.000000
1.867905 98.000000
1.869969 98.000000
1.872033 98.000000
1.874097 98.000000
1.876161 98.000000
1.878225 98.000000
1.880289 98.000000
1.882353 98.000000
1.884417 98.000000
1.886481 98.000000
1.888545 98.000000
1.890609 98.000000
1.892673 98.000000
1.894737 98.000000
1.896801 98.000000
1.898865 98.000000
1.900929 98.000000
1.902993 98.000000
1.905057 98.000000
1.907121 98.000000
1.909185 98.000000
1.911249 98.000000
1.913313 98.000000
1.915377 98.000000
1.917441 98.000000
1.919505 98.000000
1.921569 98.000000
1.923633 98.000000
1.925697 98.000000
1.927761 98.000000
1.929825 98.000000
1.931889 98.000000
1.933953 98.000000
1.936017 98.000000
1.938080 98.000000
1.940144 98.000000
1.942208 98.000000
1.944272 98.000000
1.946336 98.000000
1.948400 98.000000
1.950464 98.000000
1.952528 98.000000
1.954592 98.000000
1.956656 98.000000
1.958720 98.000000
1.960784 98.000000
1.962848 98.000000
1.964912 98.000000
1.966976 98.000000
1.969040 98.000000
1.971104 98.000000
1.973168 98.000000
1.975232 98.000000
1.977296 98.000000
1.979360 98.000000
1.981424 98.000000
1.983488 98.000000
1.985552 98.000000
1.987616 98.000000
1.989680 98.000000
1.991744 98.000000
1.993808 98.000000
1.995872 98.000000
1.997936 98.000000
2.000000 99.000000
2.002064 99.000000
2.004128 99.000000
2.006192 99.000000
2.008256 99.000000
2.010320 100.000000
2.012384 100.000000
2.014448 100.000000
2.016512 101.000000
2.018576 101.000000
2.020640 103.000000
2.022704 107.000000
2.024768 107.000000
2.026832 105.000000
2.028896 102.000000
2.030960 101.000000
2.033024 99.000000
2.035088 99.000000
2.037152 99.000000
2.039216 99.000000
2.041280 99.000000
2.043344 98.000000
2.045408 98.000000
2.047472 98.000000
2.049536 98.000000
2.051600 98.000000
2.053664 98.000000
2.055728 98.000000
2.057792 98.000000
2.059856 98.000000
2.061920 98.000000
2.063983 98.000000
2.066047 98.000000
2.068111 98.000000
2.070175 98.000000
2.072239 98.000000
2.074303 98.000000
2.076367 98.000000
2.078431 98.000000
2.080495 98.000000
2.082559 98.000000
2.084623 98.000000
2.086687 98.000000
2.088751 98.000000
2.090815 98.000000
2.092879 98.000000
2.094943 98.000000
2.097007 98.000000
2.099071 98.000000
2.101135 98.000000
2.103199 98.000000
2.105263 98.000000
2.107327 98.000000
2.109391 98.000000
2.111455 98.000000
2.113519 98.000000
2.115583 98.000000
2.117647 98.000000
2.119711 98.000000
2.121775 98.000000
2.123839 98.000000
2.125903 98.000000
2.127967 98.000000
2.130031 98.000000
2.132095 98.000000
2.134159 98.000000
2.136223 98.000000
2.138287 98.000000
2.140351 98.000000
2.142415 98.000000
2.144479 98.000000
2.146543 98.000000
2.148607 98.000000
2.150671 98.000000
2.152735 98.000000
2.154799 98.000000
2.156863 98.000000
2.158927 98.000000
2.160991 98.000000
2.163055 98.000000
2.165119 98.000000
2.167183 98.000000
2.169247 98.000000
2.171311 98.000000
2.173375 98.000000
2.175439 98.000000
2.177503 98.000000
2.179567 98.000000
2.181631 98.000000
2.183695 98.000000
2.185759 98.000000
2.187822 98.000000
2.189886 98.000000
2.191950 98.000000
2.194014 98.000000
2.196078 98.000000
2.198142 98.000000
2.200206 98.000000
2.202270 98.000000
2.204334 98.000000
2.206398 98.000000
2.208462 98.000000
2.210526 98.000000
2.212590 98.000000
2.214654 98.000000
2.216718 98.000000
2.218782 98.000000
2.220846 98.000000
2.222910 98.000000
2.224974 99.000000
2.227038 99.000000
2.229102 99.000000
2.231166 99.000000
2.233230 100.000000
2.235294 100.000000
2.237358 100.000000
2.239422 100.000000
2.241486 100.000000
2.243550 100.000000
2.245614 100.000000
2.247678 100.000000
2.249742 99.000000
2.251806 99.000000
2.253870 98.000000
2.255934 98.000000
2.257998 98.000000
2.260062 98.000000
2.262126 98.000000
2.264190 98.000000
2.266254 98.000000
2.268318 98.000000
2.270382 98.000000
2.272446 98.000000
2.274510 98.000000
2.276574 98.000000
2.278638 98.000000
2.280702 98.000000
2.282766 98.000000
2.284830 98.000000
2.286894 98.000000
2.288958 98.000000
2.291022 98.000000
2.293086 98.000000
2.295150 99.000000
2.297214 99.000000
2.299278 99.000000
2.301342 99.000000
2.303406 99.000000
2.305470 100.000000
2.307534 100.000000
2.309598 100.000000
2.311662 100.000000
2.313725 100.000000
2.315789 100.000000
2.317853 100.000000
2.319917 100.000000
2.321981 100.000000
2.324045 100.000000
2.326109 101.000000
2.328173 101.000000
2.330237 101.000000
2.332301 101.000000
2.334365 102.000000
2.336429 102.000000
2.338493 102.000000
2.340557 102.000000
2.342621 102.000000
2.344685 103.000000
2.346749 103.000000
2.348813 103.000000
2.350877 104.000000
2.352941 104.000000
2.355005 105.000000
2.357069 105.000000
2.359133 105.000000
2.361197 106.000000
2.363261 106.000000
2.365325 107.000000
2.367389 107.000000
2.369453 107.000000
2.371517 108.000000
2.373581 108.000000
2.375645 109.000000
2.377709 109.000000
2.379773 109.000000
2.381837 110.000000
2.383901 110.000000
2.385965 111.000000
2.388029 111.000000
2.390093 111.000000
2.392157 111.000000
2.394221 111.000000
2.396285 112.000000
2.398349 114.000000
2.400413 116.000000
2.402477 117.000000
2.404541 118.000000
2.406605 119.000000
2.408669 122.000000
2.410733 125.000000
2.412797 126.000000
2.414861 127.000000
2.416925 128.000000
2.418989 131.000000
2.421053 143.000000
2.423117 164.000000
2.425181 210.000000
2.427245 233.000000
2.429309 408.000000
2.431373 491.000000
2.433437 498.000000
2.435501 389.000000
2.437564 343.000000
2.439628 393.000000
2.441692 525.000000
2.443756 530.000000
2.445820 334.000000
2.447884 211.000000
2.449948 169.000000
2.452012 159.000000
2.454076 139.000000
2.456140 130.000000
2.458204 120.000000
2.460268 115.000000
2.462332 113.000000
2.464396 110.000000
2.466460 108.000000
2.468524 107.000000
2.470588 105.000000
2.472652 104.000000
2.474716 104.000000
2.476780 103.000000
2.478844 102.000000
2.480908 102.000000
2.482972 102.000000
2.485036 102.000000
2.487100 102.000000
2.489164 101.000000
2.491228 101.000000
2.493292 101.000000
2.495356 101.000000
2.497420 101.000000
2.499484 101.000000
2.501548 101.000000
2.503612 101.000000
2.505676 102.000000
2.507740 102.000000
2.509804 102.000000
2.511868 101.000000
2.513932 101.000000
2.515996 100.000000
2.518060 100.000000
2.520124 100.000000
2.522188 101.000000
2.524252 101.000000
2.526316 101.000000
2.528380 101.000000
2.530444 101.000000
2.532508 101.000000
2.534572 101.000000
2.536636 102.000000
2.538700 102.000000
2.540764 103.000000
2.542828 105.000000
2.544892 110.000000
2.546956 110.000000
2.549020 100.000000
2.551084 100.000000
2.553148 100.000000
2.555212 99.000000
2.557276 99.000000
2.559340 98.000000
2.561404 98.000000
2.563467 98.000000
2.565531 98.000000
2.567595 98.000000
2.569659 98.000000
2.571723 98.000000
2.573787 98.000000
2.575851 98.000000
2.577915 98.000000
2.579979 98.000000
2.582043 98.000000
2.584107 98.000000
2.586171 98.000000
2.588235 98.000000
2.590299 98.000000
2.592363 98.000000
2.594427 98.000000
2.596491 98.000000
2.598555 98.000000
2.600619 98.000000
2.602683 98.000000
2.604747 98.000000
2.606811 98.000000
2.608875 98.000000
2.610939 98.000000
2.613003 98.000000
2.615067 98.000000
2.617131 98.000000
2.619195 98.000000
2.621259 98.000000
2.623323 98.000000
2.625387 98.000000
2.627451 98.000000
2.629515 98.000000
2.631579 98.000000
2.633643 98.000000
2.635707 98.000000
2.637771 98.000000
2.639835 98.000000
2.641899 98.000000
2.643963 98.000000
2.646027 98.000000
2.648091 98.000000
2.650155 98.000000
2.652219 98.000000
2.654283 98.000000
2.656347 98.000000
2.658411 98.000000
2.660475 98.000000
2.662539 98.000000
2.664603 98.000000
2.666667 98.000000
2.668731 98.000000
2.670795 98.000000
2.672859 98.000000
2.674923 98.000000
2.676987 98.000000
2.679051 98.000000
2.681115 98.000000
2.683179 98.000000
2.685243 98.000000
2.687307 98.000000
2.689370 98.000000
2.691434 98.000000
2.693498 98.000000
2.695562 98.000000
2.697626 98.000000
2.699690 98.000000
2.701754 98.000000
2.703818 98.000000
2.705882 98.000000
2.707946 98.000000
2.710010 98.000000
2.712074 98.000000
2.714138 98.000000
2.716202 98.000000
2.718266 98.000000
2.720330 98.000000
2.722394 98.000000
2.724458 98.000000
2.726522 98.000000
2.728586 98.000000
2.730650 98.000000
2.732714 98.000000
2.734778 98.000000
2.736842 98.000000
2.738906 98.000000
2.740970 98.000000
2.743034 98.000000
2.745098 98.000000
2.747162 98.000000
2.749226 98.000000
2.751290 98.000000
2.753354 98.000000
2.755418 98.000000
2.757482 98.000000
2.759546 98.000000
2.761610 97.000000
2.763674 97.000000
2.765738 97.000000
2.767802 97.000000
2.769866 97.000000
2.771930 98.000000
2.773994 98.000000
2.776058 98.000000
2.778122 98.000000
2.780186 98.000000
2.782250 98.000000
2.784314 98.000000
2.786378 98.000000
2.788442 98.000000
2.790506 98.000000
2.792570 97.000000
2.794634 97.000000
2.796698 97.000000
2.798762 97.000000
2.800826 97.000000
2.802890 98.000000
2.804954 98.000000
2.807018 98.000000
2.809082 98.000000
2.811146 98.000000
2.813209 98.000000
2.815273 98.000000
2.817337 98.000000
2.819401 98.000000
2.821465 98.000000
2.823529 97.000000
2.825593 97.000000
2.827657 97.000000
2.829721 97.000000
2.831785 97.000000
2.833849 97.000000
2.835913 97.000000
2.837977 97.000000
2.840041 97.000000
2.842105 98.000000
2.844169 98.000000
2.846233 98.000000
2.848297 98.000000
2.850361 98.000000
2.852425 98.000000
2.854489 98.000000
2.856553 98.000000
2.858617 98.000000
2.860681 98.000000
2.862745 98.000000
2.864809 98.000000
2.866873 98.000000
2.868937 98.000000
2.871001 98.000000
2.873065 98.000000
2.875129 98.000000
2.877193 98.000000
2.879257 98.000000
2.881321 98.000000
2.883385 98.000000
2.885449 98.000000
2.887513 98.000000
2.889577 98.000000
2.891641 98.000000
2.893705 98.000000
2.895769 98.000000
2.897833 98.000000
2.899897 98.000000
2.901961 98.000000
2.904025 98.000000
2.906089 98.000000
2.908153 98.000000
2.910217 98.000000
2.912281 98.000000
2.914345 97.000000
2.916409 97.000000
2.918473 97.000000
2.920537 97.000000
2.922601 98.000000
2.924665 98.000000
2.926729 98.000000
2.928793 98.000000
2.930857 98.000000
2.932921 98.000000
2.934985 98.000000
2.937049 98.000000
2.939112 98.000000
2.941176 98.000000
2.943240 97.000000
2.945304 97.000000
2.947368 97.000000
2.949432 97.000000
2.951496 97.000000
2.953560 97.000000
2.955624 97.000000
2.957688 97.000000
2.959752 97.000000
2.961816 97.000000
2.963880 97.000000
2.965944 97.000000
2.968008 97.000000
2.970072 97.000000
2.972136 97.000000
2.974200 97.000000
2.976264 97.000000
2.978328 97.000000
2.980392 97.000000
2.982456 97.000000
2.984520 97.000000
2.986584 97.000000
2.988648 97.000000
2.990712 97.000000
2.992776 97.000000
2.994840 97.000000
2.996904 97.000000
2.998968 97.000000
3.001032 97.000000
3.003096 97.000000
3.005160 98.000000
3.007224 98.000000
3.009288 98.000000
3.011352 98.000000
3.013416 98.000000
3.015480 98.000000
3.017544 98.000000
3.019608 98.000000
3.021672 98.000000
3.023736 98.000000
3.025800 98.000000
3.027864 98.000000
3.029928 97.000000
3.031992 97.000000
3.034056 96.000000
3.036120 96.000000
3.038184 96.000000
3.040248 96.000000
3.042312 96.000000
3.044376 96.000000
3.046440 96.000000
3.048504 96.000000
3.050568 96.000000
3.052632 96.000000
3.054696 97.000000
3.056760 97.000000
3.058824 97.000000
3.060888 97.000000
3.062951 97.000000
3.065015 98.000000
3.067079 98.000000
3.069143 98.000000
3.071207 98.000000
3.073271 98.000000
3.075335 98.000000
3.077399 98.000000
3.079463 98.000000
3.081527 98.000000
3.083591 98.000000
3.085655 97.000000
3.087719 97.000000
3.089783 97.000000
3.091847 97.000000
3.093911 97.000000
3.095975 97.000000
3.098039 97.000000
3.100103 97.000000
3.102167 97.000000
3.104231 97.000000
3.106295 97.000000
3.108359 97.000000
3.110423 97.000000
3.112487 97.000000
3.114551 97.000000
3.116615 97.000000
3.118679 97.000000
3.120743 97.000000
3.122807 97.000000
3.124871 98.000000
3.126935 98.000000
3.128999 98.000000
3.131063 98.000000
3.133127 98.000000
3.135191 98.000000
3.137255 98.000000
3.139319 98.000000
3.141383 98.000000
3.143447 98.000000
3.145511 97.000000
3.147575 97.000000
3.149639 97.000000
3.151703 97.000000
3.153767 97.000000
3.155831 97.000000
3.157895 97.000000
3.159959 97.000000
3.162023 97.000000
3.164087 97.000000
3.166151 97.000000
3.168215 97.000000
3.170279 97.000000
3.172343 97.000000
3.174407 97.000000
3.176471 97.000000
3.178535 97.000000
3.180599 97.000000
3.182663 97.000000
3.184727 97.000000
3.186791 97.000000
3.188854 97.000000
3.190918 97.000000
3.192982 97.000000
3.195046 97.000000
3.197110 97.000000
3.199174 97.000000
3.201238 97.000000
3.203302 97.000000
3.205366 97.000000
3.207430 97.000000
3.209494 97.000000
3.211558 97.000000
3.213622 97.000000
3.215686 97.000000
3.217750 97.000000
3.219814 97.000000
3.221878 97.000000
3.223942 97.000000
3.226006 97.000000
3.228070 97.000000
3.230134 97.000000
3.232198 97.000000
3.234262 97.000000
3.236326 97.000000
3.238390 97.000000
3.240454 97.000000
3.242518 97.000000
3.244582 97.000000
3.246646 97.000000
3.248710 97.000000
3.250774 97.000000
3.252838 98.000000
3.254902 98.000000
3.256966 98.000000
3.259030 98.000000
3.261094 98.000000
3.263158 97.000000
3.265222 97.000000
3.267286 97.000000
3.269350 97.000000
3.271414 97.000000
3.273478 97.000000
3.275542 97.000000
3.277606 97.000000
3.279670 97.000000
3.281734 97.000000
3.283798 97.000000
3.285862 97.000000
3.287926 96.000000
3.289990 96.000000
3.292054 96.000000
3.294118 96.000000
3.296182 96.000000
3.298246 97.000000
3.300310 97.000000
3.302374 98.000000
3.304438 98.000000
3.306502 98.000000
3.308566 98.000000
3.310630 98.000000
3.312693 97.000000
3.314757 97.000000
3.316821 97.000000
3.318885 97.000000
3.320949 97.000000
3.323013 97.000000
3.325077 97.000000
3.327141 97.000000
3.329205 97.000000
3.331269 97.000000
3.333333 97.000000
3.335397 97.000000
3.337461 97.000000
3.339525 97.000000
3.341589 97.000000
3.343653 97.000000
3.345717 97.000000
3.347781 97.000000
3.349845 97.000000
3.351909 97.000000
3.353973 97.000000
3.356037 97.000000
3.358101 97.000000
3.360165 97.000000
3.362229 97.000000
3.364293 97.000000
3.366357 97.000000
3.368421 97.000000
3.370485 97.000000
3.372549 97.000000
3.374613 97.000000
3.376677 97.000000
3.378741 97.000000
3.380805 97.000000
3.382869 97.000000
3.384933 97.000000
3.386997 97.000000
3.389061 97.000000
3.391125 97.000000
3.393189 97.000000
3.395253 97.000000
3.397317 97.000000
3.399381 97.000000
3.401445 97.000000
3.403509 97.000000
3.405573 97.000000
3.407637 97.000000
3.409701 97.000000
3.411765 97.000000
3.413829 97.000000
3.415893 97.000000
3.417957 96.000000
3.420021 96.000000
3.422085 96.000000
3.424149 96.000000
3.426213 96.000000
3.428277 97.000000
3.430341 97.000000
3.432405 97.000000
3.434469 97.000000
3.436533 97.000000
3.438596 97.000000
3.440660 97.000000
3.442724 97.000000
3.444788 97.000000
3.446852 97.000000
3.448916 97.000000
3.450980 97.000000
3.453044 97.000000
3.455108 97.000000
3.457172 97.000000
3.459236 97.000000
3.461300 97.000000
3.463364 97.000000
3.465428 97.000000
3.467492 97.000000
3.469556 97.000000
3.471620 97.000000
3.473684 97.000000
3.475748 97.000000
3.477812 97.000000
3.479876 97.000000
3.481940 97.000000
3.484004 97.000000
3.486068 97.000000
3.488132 97.000000
3.490196 97.000000
3.492260 97.000000
3.494324 97.000000
3.496388 97.000000
3.498452 97.000000
3.500516 97.000000
3.502580 97.000000
3.504644 97.000000
3.506708 97.000000
3.508772 97.000000
3.510836 97.000000
3.512900 97.000000
3.514964 97.000000
3.517028 97.000000
3.519092 97.000000
3.521156 97.000000
3.523220 97.000000
3.525284 97.000000
3.527348 97.000000
3.529412 96.000000
3.531476 96.000000
3.533540 96.000000
3.535604 96.000000
3.537668 96.000000
3.539732 96.000000
3.541796 96.000000
3.543860 96.000000
3.545924 96.000000
3.547988 96.000000
3.550052 96.000000
3.552116 96.000000
3.554180 96.000000
3.556244 96.000000
3.558308 96.000000
3.560372 96.000000
3.562436 96.000000
3.564499 96.000000
3.566563 96.000000
3.568627 96.000000
3.570691 97.000000
3.572755 97.000000
3.574819 97.000000
3.576883 97.000000
3.578947 97.000000
3.581011 97.000000
3.583075 97.000000
3.585139 97.000000
3.587203 97.000000
3.589267 97.000000
3.591331 97.000000
3.593395 97.000000
3.595459 97.000000
3.597523 97.000000
3.599587 97.000000
3.601651 97.000000
3.603715 97.000000
3.605779 97.000000
3.607843 97.000000
3.609907 97.000000
3.611971 97.000000
3.614035 97.000000
3.616099 97.000000
3.618163 97.000000
3.620227 97.000000
3.622291 97.000000
3.624355 97.000000
3.626419 97.000000
3.628483 97.000000
3.630547 97.000000
3.632611 97.000000
3.634675 97.000000
3.636739 97.000000
3.638803 97.000000
3.640867 97.000000
3.642931 97.000000
3.644995 97.000000
3.647059 97.000000
3.649123 97.000000
3.651187 97.000000
3.653251 97.000000
3.655315 97.000000
3.657379 97.000000
3.659443 97.000000
3.661507 97.000000
3.663571 97.000000
3.665635 97.000000
3.667699 97.000000
3.669763 97.000000
3.671827 97.000000
3.673891 97.000000
3.675955 97.000000
3.678019 97.000000
3.680083 97.000000
3.682147 97.000000
3.684211 97.000000
3.686275 97.000000
3.688338 97.000000
3.690402 97.000000
3.692466 97.000000
3.694530 97.000000
3.696594 97.000000
3.698658 97.000000
3.700722 97.000000
3.702786 97.000000
3.704850 97.000000
3.706914 97.000000
3.708978 97.000000
3.711042 97.000000
3.713106 97.000000
3.715170 97.000000
3.717234 97.000000
3.719298 97.000000
3.721362 97.000000
3.723426 97.000000
3.725490 97.000000
3.727554 97.000000
3.729618 97.000000
3.731682 97.000000
3.733746 97.000000
3.735810 97.000000
3.737874 97.000000
3.739938 97.000000
3.742002 97.000000
3.744066 97.000000
3.746130 97.000000
3.748194 97.000000
3.750258 97.000000
3.752322 97.000000
3.754386 97.000000
3.756450 97.000000
3.758514 97.000000
3.760578 97.000000
3.762642 97.000000
3.764706 97.000000
3.766770 97.000000
3.768834 97.000000
3.770898 97.000000
3.772962 97.000000
3.775026 97.000000
3.777090 97.000000
3.779154 97.000000
3.781218 97.000000
3.783282 97.000000
3.785346 97.000000
3.787410 97.000000
3.789474 97.000000
3.791538 97.000000
3.793602 97.000000
3.795666 97.000000
3.797730 97.000000
3.799794 97.000000
3.801858 97.000000
3.803922 97.000000
3.805986 97.000000
3.808050 97.000000
3.810114 97.000000
3.812178 96.000000
3.814241 96.000000
3.816305 96.000000
3.818369 96.000000
3.820433 96.000000
3.822497 97.000000
3.824561 97.000000
3.826625 97.000000
3.828689 97.000000
3.830753 97.000000
3.832817 97.000000
3.834881 97.000000
3.836945 97.000000
3.839009 97.000000
3.841073 97.000000
3.843137 97.000000
3.845201 97.000000
3.847265 97.000000
3.849329 97.000000
3.851393 97.000000
3.853457 97.000000
3.855521 97.000000
3.857585 97.000000
3.859649 97.000000
3.861713 97.000000
3.863777 96.000000
3.865841 96.000000
3.867905 96.000000
3.869969 96.000000
3.872033 96.000000
3.874097 96.000000
3.876161 96.000000
3.878225 96.000000
3.880289 96.000000
3.882353 96.000000
3.884417 96.000000
3.886481 96.000000
3.888545 96.000000
3.890609 96.000000
3.892673 96.000000
3.894737 96.000000
3.896801 96.000000
3.898865 96.000000
3.900929 96.000000
3.902993 97.000000
3.905057 97.000000
3.907121 97.000000
3.909185 97.000000
3.911249 97.000000
3.913313 97.000000
3.915377 97.000000
3.917441 97.000000
3.919505 97.000000
3.921569 97.000000
3.923633 97.000000
3.925697 97.000000
3.927761 97.000000
3.929825 97.000000
3.931889 97.000000
3.933953 96.000000
3.936017 96.000000
3.938080 96.000000
3.940144 96.000000
3.942208 96.000000
3.944272 97.000000
3.946336 97.000000
3.948400 97.000000
3.950464 97.000000
3.952528 97.000000
3.954592 97.000000
3.956656 97.000000
3.958720 97.000000
3.960784 97.000000
3.962848 97.000000
3.964912 97.000000
3.966976 97.000000
3.969040 97.000000
3.971104 97.000000
3.973168 97.000000
3.975232 97.000000
3.977296 97.000000
3.979360 97.000000
3.981424 97.000000
3.983488 97.000000
3.985552 97.000000
3.987616 97.000000
3.989680 97.000000
3.991744 97.000000
3.993808 97.000000
3.995872 97.000000
3.997936 97.000000
4.000000 97.000000
4.002064 97.000000
4.004128 97.000000
4.006192 97.000000
4.008256 97.000000
4.010320 97.000000
4.012384 97.000000
4.014448 97.000000
4.016512 97.000000
4.018576 97.000000
4.020640 97.000000
4.022704 97.000000
4.024768 96.000000
4.026832 96.000000
4.028896 96.000000
4.030960 96.000000
4.033024 96.000000
4.035088 96.000000
4.037152 96.000000
4.039216 96.000000
4.041280 96.000000
4.043344 96.000000
4.045408 96.000000
4.047472 96.000000
4.049536 96.000000
4.051600 96.000000
4.053664 96.000000
4.055728 96.000000
4.057792 96.000000
4.059856 96.000000
4.061920 96.000000
4.063983 96.000000
4.066047 96.000000
4.068111 96.000000
4.070175 96.000000
4.072239 96.000000
4.074303 96.000000
4.076367 96.000000
4.078431 96.000000
4.080495 96.000000
4.082559 96.000000
4.084623 96.000000
4.086687 96.000000
4.088751 96.000000
4.090815 96.000000
4.092879 96.000000
4.094943 96.000000
4.097007 96.000000
4.099071 96.000000
4.101135 96.000000
4.103199 96.000000
4.105263 97.000000
4.107327 97.000000
4.109391 97.000000
4.111455 97.000000
4.113519 97.000000
4.115583 97.000000
4.117647 97.000000
4.119711 97.000000
4.121775 97.000000
4.123839 97.000000
4.125903 97.000000
4.127967 97.000000
4.130031 97.000000
4.132095 97.000000
4.134159 97.000000
4.136223 97.000000
4.138287 97.000000
4.140351 97.000000
4.142415 97.000000
4.144479 97.000000
4.146543 96.000000
4.148607 96.000000
4.150671 96.000000
4.152735 96.000000
4.154799 96.000000
4.156863 96.000000
4.158927 96.000000
4.160991 96.000000
4.163055 96.000000
4.165119 96.000000
4.167183 96.000000
4.169247 96.000000
4.171311 96.000000
4.173375 96.000000
4.175439 97.000000
4.177503 97.000000
4.179567 97.000000
4.181631 97.000000
4.183695 97.000000
4.185759 97.000000
4.187822 97.000000
4.189886 97.000000
4.191950 97.000000
4.194014 97.000000
4.196078 97.000000
4.198142 97.000000
4.200206 97.000000
4.202270 97.000000
4.204334 97.000000
4.206398 97.000000
4.208462 97.000000
4.210526 97.000000
4.212590 97.000000
4.214654 97.000000
4.216718 96.000000
4.218782 96.000000
4.220846 96.000000
4.222910 96.000000
4.224974 96.000000
4.227038 96.000000
4.229102 96.000000
4.231166 96.000000
4.233230 96.000000
4.235294 96.000000
4.237358 97.000000
4.239422 97.000000
4.241486 97.000000
4.243550 97.000000
4.245614 97.000000
4.247678 97.000000
4.249742 97.000000
4.251806 97.000000
4.253870 97.000000
4.255934 96.000000
4.257998 96.000000
4.260062 96.000000
4.262126 96.000000
4.264190 96.000000
4.266254 96.000000
4.268318 96.000000
4.270382 96.000000
4.272446 96.000000
4.274510 96.000000
4.276574 97.000000
4.278638 97.000000
4.280702 97.000000
4.282766 97.000000
4.284830 97.000000
4.286894 97.000000
4.288958 97.000000
4.291022 97.000000
4.293086 97.000000
4.295150 97.000000
4.297214 97.000000
4.299278 97.000000
4.301342 97.000000
4.303406 97.000000
4.305470 97.000000
4.307534 97.000000
4.309598 97.000000
4.311662 97.000000
4.313725 97.000000
4.315789 97.000000
4.317853 96.000000
4.319917 96.000000
4.321981 96.000000
4.324045 96.000000
4.326109 96.000000
4.328173 97.000000
4.330237 97.000000
4.332301 97.000000
4.334365 97.000000
4.336429 97.000000
4.338493 97.000000
4.340557 97.000000
4.342621 97.000000
4.344685 97.000000
4.346749 97.000000
4.348813 97.000000
4.350877 97.000000
4.352941 97.000000
4.355005 97.000000
4.357069 97.000000
4.359133 97.000000
4.361197 97.000000
4.363261 97.000000
4.365325 97.000000
4.367389 97.000000
4.369453 97.000000
4.371517 97.000000
4.373581 97.000000
4.375645 97.000000
4.377709 97.000000
4.379773 97.000000
4.381837 97.000000
4.383901 97.000000
4.385965 97.000000
4.388029 96.000000
4.390093 96.000000
4.392157 96.000000
4.394221 96.000000
4.396285 96.000000
4.398349 96.000000
4.400413 96.000000
4.402477 96.000000
4.404541 96.000000
4.406605 96.000000
4.408669 96.000000
4.410733 96.000000
4.412797 96.000000
4.414861 96.000000
4.416925 96.000000
4.418989 97.000000
4.421053 98.000000
4.423117 98.000000
4.425181 97.000000
4.427245 98.000000
4.429309 98.000000
4.431373 97.000000
4.433437 96.000000
4.435501 98.000000
4.437564 101.000000
4.439628 101.000000
4.441692 99.000000
4.443756 99.000000
4.445820 99.000000
4.447884 99.000000
4.449948 98.000000
4.452012 98.000000
4.454076 97.000000
4.456140 97.000000
4.458204 97.000000
4.460268 97.000000
4.462332 97.000000
4.464396 97.000000
4.466460 97.000000
4.468524 97.000000
4.470588 97.000000
4.472652 97.000000
4.474716 97.000000
4.476780 97.000000
4.478844 97.000000
4.480908 97.000000
4.482972 97.000000
4.485036 97.000000
4.487100 97.000000
4.489164 97.000000
4.491228 97.000000
4.493292 97.000000
4.495356 97.000000
4.497420 97.000000
4.499484 97.000000
4.501548 97.000000
4.503612 97.000000
4.505676 97.000000
4.507740 97.000000
4.509804 97.000000
4.511868 97.000000
4.513932 97.000000
4.515996 97.000000
4.518060 97.000000
4.520124 97.000000
4.522188 97.000000
4.524252 98.000000
4.526316 98.000000
4.528380 98.000000
4.530444 98.000000
4.532508 98.000000
4.534572 98.000000
4.536636 98.000000
4.538700 98.000000
4.540764 98.000000
4.542828 98.000000
4.544892 98.000000
4.546956 98.000000
4.549020 98.000000
4.551084 98.000000
4.553148 98.000000
4.555212 99.000000
4.557276 99.000000
4.559340 99.000000
4.561404 99.000000
4.563467 99.000000
4.565531 100.000000
4.567595 101.000000
4.569659 102.000000
4.571723 102.000000
4.573787 101.000000
4.575851 100.000000
4.577915 100.000000
4.579979 101.000000
4.582043 101.000000
4.584107 102.000000
4.586171 103.000000
4.588235 104.000000
4.590299 104.000000
4.592363 100.000000
4.594427 100.000000
4.596491 100.000000
4.598555 99.000000
4.600619 99.000000
4.602683 98.000000
4.604747 98.000000
4.606811 98.000000
4.608875 98.000000
4.610939 98.000000
4.613003 98.000000
4.615067 98.000000
4.617131 98.000000
4.619195 98.000000
4.621259 98.000000
4.623323 98.000000
4.625387 98.000000
4.627451 98.000000
4.629515 98.000000
4.631579 98.000000
4.633643 98.000000
4.635707 98.000000
4.637771 98.000000
4.639835 98.000000
4.641899 98.000000
4.643963 99.000000
4.646027 99.000000
4.648091 99.000000
4.650155 99.000000
4.652219 99.000000
4.654283 99.000000
4.656347 99.000000
4.658411 99.000000
4.660475 99.000000
4.662539 99.000000
4.664603 99.000000
4.666667 99.000000
4.668731 99.000000
4.670795 99.000000
4.672859 100.000000
4.674923 100.000000
4.676987 100.000000
4.679051 100.000000
4.681115 100.000000
4.683179 100.000000
4.685243 100.000000
4.687307 100.000000
4.689370 100.000000
4.691434 100.000000
4.693498 101.000000
4.695562 101.000000
4.697626 101.000000
4.699690 102.000000
4.701754 102.000000
4.703818 103.000000
4.705882 103.000000
4.707946 103.000000
4.710010 104.000000
4.712074 104.000000
4.714138 104.000000
4.716202 104.000000
4.718266 104.000000
4.720330 104.000000
4.722394 104.000000
4.724458 105.000000
4.726522 105.000000
4.728586 105.000000
4.730650 106.000000
4.732714 106.000000
4.734778 107.000000
4.736842 107.000000
4.738906 107.000000
4.740970 108.000000
4.743034 108.000000
4.745098 109.000000
4.747162 110.000000
4.749226 111.000000
4.751290 112.000000
4.753354 113.000000
4.755418 114.000000
4.757482 117.000000
4.759546 121.000000
4.761610 133.000000
4.763674 153.000000
4.765738 160.000000
4.767802 165.000000
4.769866 161.000000
4.771930 151.000000
4.773994 158.000000
4.776058 174.000000
4.778122 171.000000
4.780186 168.000000
4.782250 169.000000
4.784314 235.000000
4.786378 252.000000
4.788442 267.000000
4.790506 268.000000
4.792570 226.000000
4.794634 225.000000
4.796698 275.000000
4.798762 277.000000
4.800826 257.000000
4.802890 240.000000
4.804954 191.000000
4.807018 254.000000
4.809082 274.000000
4.811146 268.000000
4.813209 261.000000
4.815273 216.000000
4.817337 253.000000
4.819401 268.000000
4.821465 250.000000
4.823529 195.000000
4.825593 179.000000
4.827657 156.000000
4.829721 163.000000
4.831785 164.000000
4.833849 152.000000
4.835913 147.000000
4.837977 140.000000
4.840041 153.000000
4.842105 153.000000
4.844169 144.000000
4.846233 126.000000
4.848297 121.000000
4.850361 109.000000
4.852425 105.000000
4.854489 105.000000
4.856553 104.000000
4.858617 103.000000
4.860681 102.000000
4.862745 101.000000
4.864809 101.000000
4.866873 101.000000
4.868937 101.000000
4.871001 101.000000
4.873065 100.000000
4.875129 100.000000
4.877193 100.000000
4.879257 100.000000
4.881321 100.000000
4.883385 99.000000
4.885449 99.000000
4.887513 99.000000
4.889577 99.000000
4.891641 99.000000
4.893705 99.000000
4.895769 99.000000
4.897833 99.000000
4.899897 99.000000
4.901961 99.000000
4.904025 99.000000
4.906089 99.000000
4.908153 99.000000
4.910217 99.000000
4.912281 99.000000
4.914345 99.000000
4.916409 99.000000
4.918473 99.000000
4.920537 99.000000
4.922601 99.000000
4.924665 99.000000
4.926729 99.000000
4.928793 99.000000
4.930857 99.000000
4.932921 98.000000
4.934985 98.000000
4.937049 98.000000
4.939112 98.000000
4.941176 98.000000
4.943240 98.000000
4.945304 98.000000
4.947368 98.000000
4.949432 98.000000
4.951496 98.000000
4.953560 98.000000
4.955624 98.000000
4.957688 98.000000
4.959752 98.000000
4.961816 98.000000
4.963880 98.000000
4.965944 98.000000
4.968008 98.000000
4.970072 98.000000
4.972136 98.000000
4.974200 98.000000
4.976264 98.000000
4.978328 98.000000
4.980392 98.000000
4.982456 98.000000
4.984520 98.000000
4.986584 98.000000
4.988648 98.000000
4.990712 98.000000
4.992776 98.000000
4.994840 98.000000
4.996904 98.000000
4.998968 98.000000
5.001032 98.000000
5.003096 98.000000
5.005160 98.000000
5.007224 98.000000
5.009288 98.000000
5.011352 98.000000
5.013416 98.000000
5.015480 98.000000
5.017544 98.000000
5.019608 98.000000
5.021672 98.000000
5.023736 98.000000
5.025800 98.000000
5.027864 98.000000
5.029928 98.000000
5.031992 98.000000
5.034056 98.000000
5.036120 98.000000
5.038184 98.000000
5.040248 98.000000
5.042312 98.000000
5.044376 99.000000
5.046440 99.000000
5.048504 99.000000
5.050568 99.000000
5.052632 99.000000
5.054696 99.000000
5.056760 99.000000
5.058824 99.000000
5.060888 99.000000
5.062951 99.000000
5.065015 98.000000
5.067079 98.000000
5.069143 98.000000
5.071207 98.000000
5.073271 98.000000
5.075335 97.000000
5.077399 97.000000
5.079463 97.000000
5.081527 97.000000
5.083591 97.000000
5.085655 97.000000
5.087719 97.000000
5.089783 97.000000
5.091847 97.000000
5.093911 97.000000
5.095975 97.000000
5.098039 97.000000
5.100103 97.000000
5.102167 97.000000
5.104231 97.000000
5.106295 98.000000
5.108359 98.000000
5.110423 98.000000
5.112487 98.000000
5.114551 98.000000
5.116615 98.000000
5.118679 98.000000
5.120743 97.000000
5.122807 97.000000
5.124871 97.000000
5.126935 97.000000
5.128999 97.000000
5.131063 98.000000
5.133127 98.000000
5.135191 98.000000
5.137255 98.000000
5.139319 98.000000
5.141383 98.000000
5.143447 98.000000
5.145511 97.000000
5.147575 97.000000
5.149639 97.000000
5.151703 97.000000
5.153767 97.000000
5.155831 97.000000
5.157895 97.000000
5.159959 97.000000
5.162023 97.000000
5.164087 97.000000
5.166151 98.000000
5.168215 98.000000
5.170279 98.000000
5.172343 98.000000
5.174407 98.000000
5.176471 98.000000
5.178535 98.000000
5.180599 98.000000
5.182663 98.000000
5.184727 98.000000
5.186791 97.000000
5.188854 97.000000
5.190918 97.000000
5.192982 97.000000
5.195046 97.000000
5.197110 97.000000
5.199174 97.000000
5.201238 97.000000
5.203302 97.000000
5.205366 97.000000
5.207430 97.000000
5.209494 97.000000
5.211558 97.000000
5.213622 97.000000
5.215686 97.000000
5.217750 97.000000
5.219814 97.000000
5.221878 97.000000
5.223942 97.000000
5.226006 97.000000
5.228070 97.000000
5.230134 97.000000
5.232198 97.000000
5.234262 97.000000
5.236326 97.000000
5.238390 97.000000
5.240454 97.000000
5.242518 97.000000
5.244582 97.000000
5.246646 97.000000
5.248710 97.000000
5.250774 97.000000
5.252838 97.000000
5.254902 97.000000
5.256966 97.000000
5.259030 97.000000
5.261094 97.000000
5.263158 97.000000
5.265222 97.000000
5.267286 97.000000
5.269350 97.000000
5.271414 97.000000
5.273478 97.000000
5.275542 97.000000
5.277606 97.000000
5.279670 97.000000
5.281734 97.000000
5.283798 97.000000
5.285862 97.000000
5.287926 97.000000
5.289990 97.000000
5.292054 97.000000
5.294118 97.000000
5.296182 97.000000
5.298246 97.000000
5.300310 97.000000
5.302374 97.000000
5.304438 97.000000
5.306502 97.000000
5.308566 97.000000
5.310630 97.000000
5.312693 97.000000
5.314757 97.000000
5.316821 97.000000
5.318885 97.000000
5.320949 97.000000
5.323013 97.000000
5.325077 97.000000
5.327141 96.000000
5.329205 96.000000
5.331269 96.000000
5.333333 96.000000
5.335397 96.000000
5.337461 97.000000
5.339525 97.000000
5.341589 97.000000
5.343653 97.000000
5.345717 97.000000
5.347781 97.000000
5.349845 97.000000
5.351909 97.000000
5.353973 97.000000
5.356037 97.000000
5.358101 96.000000
5.360165 96.000000
5.362229 96.000000
5.364293 96.000000
5.366357 96.000000
5.368421 96.000000
5.370485 96.000000
5.372549 96.000000
5.374613 96.000000
5.376677 96.000000
5.378741 96.000000
5.380805 96.000000
5.382869 96.000000
5.384933 96.000000
5.386997 96.000000
5.389061 97.000000
5.391125 97.000000
5.393189 97.000000
5.395253 97.000000
5.397317 97.000000
5.399381 97.000000
5.401445 97.000000
5.403509 97.000000
5.405573 97.000000
5.407637 97.000000
5.409701 97.000000
5.411765 97.000000
5.413829 97.000000
5.415893 97.000000
5.417957 97.000000
5.420021 97.000000
5.422085 97.000000
5.424149 97.000000
5.426213 97.000000
5.428277 97.000000
5.430341 97.000000
5.432405 97.000000
5.434469 97.000000
5.436533 97.000000
5.438596 97.000000
5.440660 97.000000
5.442724 97.000000
5.444788 97.000000
5.446852 97.000000
5.448916 97.000000
5.450980 97.000000
5.453044 97.000000
5.455108 97.000000
5.457172 97.000000
5.459236 97.000000
5.461300 97.000000
5.463364 97.000000
5.465428 97.000000
5.467492 97.000000
5.469556 97.000000
5.471620 97.000000
5.473684 97.000000
5.475748 97.000000
5.477812 97.000000
5.479876 97.000000
5.481940 97.000000
5.484004 97.000000
5.486068 97.000000
5.488132 97.000000
5.490196 97.000000
5.492260 97.000000
5.494324 97.000000
5.496388 97.000000
5.498452 97.000000
5.500516 97.000000
5.502580 97.000000
5.504644 97.000000
5.506708 97.000000
5.508772 97.000000
5.510836 97.000000
5.512900 97.000000
5.514964 97.000000
5.517028 97.000000
5.519092 97.000000
5.521156 97.000000
5.523220 97.000000
5.525284 97.000000
5.527348 97.000000
5.529412 97.000000
5.531476 97.000000
5.533540 97.000000
5.535604 97.000000
5.537668 97.000000
5.539732 96.000000
5.541796 96.000000
5.543860 96.000000
5.545924 96.000000
5.547988 96.000000
5.550052 96.000000
5.552116 96.000000
5.554180 96.000000
5.556244 96.000000
5.558308 96.000000
5.560372 97.000000
5.562436 97.000000
5.564499 97.000000
5.566563 97.000000
5.568627 97.000000
5.570691 97.000000
5.572755 97.000000
5.574819 97.000000
5.576883 97.000000
5.578947 97.000000
5.581011 97.000000
5.583075 97.000000
5.585139 97.000000
5.587203 97.000000
5.589267 96.000000
5.591331 96.000000
5.593395 96.000000
5.595459 96.000000
5.597523 96.000000
5.599587 96.000000
5.601651 96.000000
5.603715 96.000000
5.605779 96.000000
5.607843 96.000000
5.609907 96.000000
5.611971 96.000000
5.614035 96.000000
5.616099 96.000000
5.618163 96.000000
5.620227 97.000000
5.622291 97.000000
5.624355 97.000000
5.626419 97.000000
5.628483 97.000000
5.630547 97.000000
5.632611 97.000000
5.634675 97.000000
5.636739 97.000000
5.638803 97.000000
5.640867 97.000000
5.642931 97.000000
5.644995 97.000000
5.647059 97.000000
5.649123 97.000000
5.651187 96.000000
5.653251 96.000000
5.655315 96.000000
5.657379 96.000000
5.659443 96.000000
5.661507 96.000000
5.663571 96.000000
5.665635 96.000000
5.667699 96.000000
5.669763 96.000000
5.671827 96.000000
5.673891 96.000000
5.675955 96.000000
5.678019 96.000000
5.680083 96.000000
5.682147 96.000000
5.684211 96.000000
5.686275 96.000000
5.688338 96.000000
5.690402 96.000000
5.692466 96.000000
5.694530 96.000000
5.696594 96.000000
5.698658 96.000000
5.700722 96.000000
5.702786 96.000000
5.704850 96.000000
5.706914 96.000000
5.708978 96.000000
5.711042 96.000000
5.713106 96.000000
5.715170 96.000000
5.717234 96.000000
5.719298 96.000000
5.721362 96.000000
5.723426 96.000000
5.725490 96.000000
5.727554 96.000000
5.729618 96.000000
5.731682 96.000000
5.733746 96.000000
5.735810 96.000000
5.737874 96.000000
5.739938 96.000000
5.742002 96.000000
5.744066 96.000000
5.746130 96.000000
5.748194 96.000000
5.750258 96.000000
5.752322 96.000000
5.754386 96.000000
5.756450 96.000000
5.758514 96.000000
5.760578 96.000000
5.762642 97.000000
5.764706 97.000000
5.766770 97.000000
5.768834 97.000000
5.770898 97.000000
5.772962 97.000000
5.775026 97.000000
5.777090 97.000000
5.779154 97.000000
5.781218 97.000000
5.783282 97.000000
5.785346 97.000000
5.787410 97.000000
5.789474 97.000000
5.791538 97.000000
5.793602 97.000000
5.795666 97.000000
5.797730 97.000000
5.799794 97.000000
5.801858 96.000000
5.803922 96.000000
5.805986 96.000000
5.808050 96.000000
5.810114 96.000000
5.812178 97.000000
5.814241 97.000000
5.816305 97.000000
5.818369 97.000000
5.820433 97.000000
5.822497 97.000000
5.824561 97.000000
5.826625 97.000000
5.828689 97.000000
5.830753 97.000000
5.832817 96.000000
5.834881 96.000000
5.836945 96.000000
5.839009 96.000000
5.841073 96.000000
5.843137 97.000000
5.845201 97.000000
5.847265 97.000000
5.849329 97.000000
5.851393 97.000000
5.853457 97.000000
5.855521 97.000000
5.857585 97.000000
5.859649 97.000000
5.861713 97.000000
5.863777 97.000000
5.865841 97.000000
5.867905 97.000000
5.869969 97.000000
5.872033 96.000000
5.874097 96.000000
5.876161 96.000000
5.878225 96.000000
5.880289 96.000000
5.882353 97.000000
5.884417 97.000000
5.886481 97.000000
5.888545 97.000000
5.890609 97.000000
5.892673 97.000000
5.894737 97.000000
5.896801 97.000000
5.898865 97.000000
5.900929 97.000000
5.902993 96.000000
5.905057 96.000000
5.907121 96.000000
5.909185 96.000000
5.911249 96.000000
5.913313 97.000000
5.915377 97.000000
5.917441 97.000000
5.919505 97.000000
5.921569 97.000000
5.923633 97.000000
5.925697 97.000000
5.927761 97.000000
5.929825 97.000000
5.931889 97.000000
5.933953 96.000000
5.936017 96.000000
5.938080 96.000000
5.940144 96.000000
5.942208 96.000000
5.944272 96.000000
5.946336 96.000000
5.948400 96.000000
5.950464 96.000000
5.952528 96.000000
5.954592 96.000000
5.956656 96.000000
5.958720 96.000000
5.960784 96.000000
5.962848 97.000000
5.964912 97.000000
5.966976 97.000000
5.969040 97.000000
5.971104 97.000000
5.973168 97.000000
5.975232 97.000000
5.977296 97.000000
5.979360 97.000000
5.981424 97.000000
5.983488 97.000000
5.985552 97.000000
5.987616 97.000000
5.989680 97.000000
5.991744 97.000000
5.993808 96.000000
5.995872 96.000000
5.997936 96.000000
6.000000 96.000000
6.002064 96.000000
6.004128 96.000000
6.006192 96.000000
6.008256 96.000000
6.010320 96.000000
6.012384 96.000000
6.014448 96.000000
6.016512 96.000000
6.018576 96.000000
6.020640 96.000000
6.022704 96.000000
6.024768 96.000000
6.026832 96.000000
6.028896 96.000000
6.030960 96.000000
6.033024 96.000000
6.035088 96.000000
6.037152 96.000000
6.039216 96.000000
6.041280 96.000000
6.043344 96.000000
6.045408 96.000000
6.047472 96.000000
6.049536 96.000000
6.051600 96.000000
6.053664 96.000000
6.055728 96.000000
6.057792 96.000000
6.059856 96.000000
6.061920 96.000000
6.063983 96.000000
6.066047 96.000000
6.068111 96.000000
6.070175 96.000000
6.072239 96.000000
6.074303 96.000000
6.076367 96.000000
6.078431 96.000000
6.080495 96.000000
6.082559 96.000000
6.084623 96.000000
6.086687 96.000000
6.088751 96.000000
6.090815 96.000000
6.092879 96.000000
6.094943 96.000000
6.097007 96.000000
6.099071 96.000000
6.101135 96.000000
6.103199 96.000000
6.105263 96.000000
6.107327 96.000000
6.109391 96.000000
6.111455 96.000000
6.113519 96.000000
6.115583 96.000000
6.117647 96.000000
6.119711 96.000000
6.121775 96.000000
6.123839 96.000000
6.125903 96.000000
6.127967 96.000000
6.130031 96.000000
6.132095 96.000000
6.134159 96.000000
6.136223 96.000000
6.138287 96.000000
6.140351 96.000000
6.142415 96.000000
6.144479 96.000000
6.146543 96.000000
6.148607 96.000000
6.150671 96.000000
6.152735 96.000000
6.154799 97.000000
6.156863 97.000000
6.158927 97.000000
6.160991 97.000000
6.163055 97.000000
6.165119 97.000000
6.167183 97.000000
6.169247 97.000000
6.171311 97.000000
6.173375 97.000000
6.175439 96.000000
6.177503 96.000000
6.179567 96.000000
6.181631 96.000000
6.183695 96.000000
6.185759 96.000000
6.187822 96.000000
6.189886 96.000000
6.191950 96.000000
6.194014 96.000000
6.196078 96.000000
6.198142 96.000000
6.200206 96.000000
6.202270 96.000000
6.204334 96.000000
6.206398 96.000000
6.208462 96.000000
6.210526 96.000000
6.212590 96.000000
6.214654 96.000000
6.216718 96.000000
6.218782 96.000000
6.220846 96.000000
6.222910 96.000000
6.224974 96.000000
6.227038 96.000000
6.229102 96.000000
6.231166 96.000000
6.233230 96.000000
6.235294 96.000000
6.237358 96.000000
6.239422 96.000000
6.241486 96.000000
6.243550 96.000000
6.245614 96.000000
6.247678 96.000000
6.249742 96.000000
6.251806 96.000000
6.253870 96.000000
6.255934 96.000000
6.257998 96.000000
6.260062 96.000000
6.262126 96.000000
6.264190 96.000000
6.266254 96.000000
6.268318 96.000000
6.270382 96.000000
6.272446 96.000000
6.274510 96.000000
6.276574 96.000000
6.278638 96.000000
6.280702 96.000000
6.282766 96.000000
6.284830 96.000000
6.286894 96.000000
6.288958 96.000000
6.291022 96.000000
6.293086 96.000000
6.295150 96.000000
6.297214 96.000000
6.299278 96.000000
6.301342 96.000000
6.303406 96.000000
6.305470 96.000000
6.307534 96.000000
6.309598 96.000000
6.311662 96.000000
6.313725 96.000000
6.315789 96.000000
6.317853 96.000000
6.319917 96.000000
6.321981 96.000000
6.324045 96.000000
6.326109 96.000000
6.328173 96.000000
6.330237 96.000000
6.332301 96.000000
6.334365 96.000000
6.336429 96.000000
6.338493 96.000000
6.340557 96.000000
6.342621 96.000000
6.344685 96.000000
6.346749 96.000000
6.348813 96.000000
6.350877 96.000000
6.352941 96.000000
6.355005 96.000000
6.357069 96.000000
6.359133 96.000000
6.361197 96.000000
6.363261 96.000000
6.365325 96.000000
6.367389 96.000000
6.369453 96.000000
6.371517 96.000000
6.373581 96.000000
6.375645 96.000000
6.377709 96.000000
6.379773 96.000000
6.381837 96.000000
6.383901 96.000000
6.385965 96.000000
6.388029 96.000000
6.390093 96.000000
6.392157 96.000000
6.394221 96.000000
6.396285 96.000000
6.398349 96.000000
6.400413 96.000000
6.402477 96.000000
6.404541 96.000000
6.406605 96.000000
6.408669 96.000000
6.410733 96.000000
6.412797 96.000000
6.414861 96.000000
6.416925 96.000000
6.418989 97.000000
6.421053 97.000000
6.423117 97.000000
6.425181 97.000000
6.427245 97.000000
6.429309 97.000000
6.431373 97.000000
6.433437 97.000000
6.435501 97.000000
6.437564 97.000000
6.439628 97.000000
6.441692 97.000000
6.443756 97.000000
6.445820 97.000000
6.447884 97.000000
6.449948 97.000000
6.452012 97.000000
6.454076 97.000000
6.456140 97.000000
6.458204 96.000000
6.460268 96.000000
6.462332 96.000000
6.464396 96.000000
6.466460 96.000000
6.468524 96.000000
6.470588 96.000000
6.472652 96.000000
6.474716 96.000000
6.476780 96.000000
6.478844 96.000000
6.480908 96.000000
6.482972 96.000000
6.485036 96.000000
6.487100 96.000000
6.489164 96.000000
6.491228 96.000000
6.493292 96.000000
6.495356 96.000000
6.497420 96.000000
6.499484 96.000000
6.501548 96.000000
6.503612 96.000000
6.505676 96.000000
6.507740 96.000000
6.509804 96.000000
6.511868 96.000000
6.513932 96.000000
6.515996 96.000000
6.518060 96.000000
6.520124 96.000000
6.522188 96.000000
6.524252 96.000000
6.526316 96.000000
6.528380 96.000000
6.530444 96.000000
6.532508 96.000000
6.534572 96.000000
6.536636 96.000000
6.538700 96.000000
6.540764 96.000000
6.542828 96.000000
6.544892 96.000000
6.546956 96.000000
6.549020 96.000000
6.551084 96.000000
6.553148 96.000000
6.555212 96.000000
6.557276 96.000000
6.559340 97.000000
6.561404 97.000000
6.563467 97.000000
6.565531 97.000000
6.567595 97.000000
6.569659 97.000000
6.571723 97.000000
6.573787 97.000000
6.575851 97.000000
6.577915 97.000000
6.579979 96.000000
6.582043 96.000000
6.584107 96.000000
6.586171 96.000000
6.588235 96.000000
6.590299 96.000000
6.592363 96.000000
6.594427 96.000000
6.596491 96.000000
6.598555 96.000000
6.600619 97.000000
6.602683 97.000000
6.604747 97.000000
6.606811 97.000000
6.608875 97.000000
6.610939 97.000000
6.613003 97.000000
6.615067 97.000000
6.617131 97.000000
6.619195 97.000000
6.621259 96.000000
6.623323 96.000000
6.625387 96.000000
6.627451 96.000000
6.629515 96.000000
6.631579 96.000000
6.633643 96.000000
6.635707 96.000000
6.637771 96.000000
6.639835 96.000000
6.641899 96.000000
6.643963 96.000000
6.646027 96.000000
6.648091 96.000000
6.650155 96.000000
6.652219 96.000000
6.654283 96.000000
6.656347 96.000000
6.658411 96.000000
6.660475 96.000000
6.662539 96.000000
6.664603 96.000000
6.666667 96.000000
6.668731 96.000000
6.670795 96.000000
6.672859 96.000000
6.674923 96.000000
6.676987 96.000000
6.679051 96.000000
6.681115 97.000000
6.683179 97.000000
6.685243 97.000000
6.687307 97.000000
6.689370 97.000000
6.691434 97.000000
6.693498 97.000000
6.695562 97.000000
6.697626 97.000000
6.699690 97.000000
6.701754 97.000000
6.703818 97.000000
6.705882 97.000000
6.707946 97.000000
6.710010 97.000000
6.712074 97.000000
6.714138 97.000000
6.716202 97.000000
6.718266 97.000000
6.720330 97.000000
6.722394 97.000000
6.724458 97.000000
6.726522 97.000000
6.728586 97.000000
6.730650 97.000000
6.732714 97.000000
6.734778 97.000000
6.736842 97.000000
6.738906 97.000000
6.740970 97.000000
6.743034 97.000000
6.745098 97.000000
6.747162 97.000000
6.749226 97.000000
6.751290 97.000000
6.753354 97.000000
6.755418 97.000000
6.757482 97.000000
6.759546 97.000000
6.761610 98.000000
6.763674 98.000000
6.765738 98.000000
6.767802 98.000000
6.769866 98.000000
6.771930 98.000000
6.773994 98.000000
6.776058 98.000000
6.778122 98.000000
6.780186 98.000000
6.782250 98.000000
6.784314 98.000000
6.786378 98.000000
6.788442 98.000000
6.790506 98.000000
6.792570 101.000000
6.794634 101.000000
6.796698 100.000000
6.798762 98.000000
6.800826 98.000000
6.802890 98.000000
6.804954 98.000000
6.807018 98.000000
6.809082 98.000000
6.811146 98.000000
6.813209 98.000000
6.815273 98.000000
6.817337 98.000000
6.819401 98.000000
6.821465 98.000000
6.823529 98.000000
6.825593 98.000000
6.827657 98.000000
6.829721 97.000000
6.831785 97.000000
6.833849 97.000000
6.835913 97.000000
6.837977 97.000000
6.840041 98.000000
6.842105 98.000000
6.844169 98.000000
6.846233 98.000000
6.848297 98.000000
6.850361 98.000000
6.852425 98.000000
6.854489 98.000000
6.856553 98.000000
6.858617 98.000000
6.860681 98.000000
6.862745 98.000000
6.864809 98.000000
6.866873 99.000000
6.868937 99.000000
6.871001 99.000000
6.873065 99.000000
6.875129 99.000000
6.877193 98.000000
6.879257 98.000000
6.881321 97.000000
6.883385 97.000000
6.885449 97.000000
6.887513 97.000000
6.889577 98.000000
6.891641 98.000000
6.893705 98.000000
6.895769 98.000000
6.897833 98.000000
6.899897 98.000000
6.901961 98.000000
6.904025 98.000000
6.906089 98.000000
6.908153 98.000000
6.910217 97.000000
6.912281 97.000000
6.914345 97.000000
6.916409 97.000000
6.918473 97.000000
6.920537 98.000000
6.922601 98.000000
6.924665 98.000000
6.926729 98.000000
6.928793 98.000000
6.930857 98.000000
6.932921 98.000000
6.934985 98.000000
6.937049 98.000000
6.939112 98.000000
6.941176 99.000000
6.943240 99.000000
6.945304 99.000000
6.947368 99.000000
6.949432 99.000000
6.951496 99.000000
6.953560 99.000000
6.955624 99.000000
6.957688 99.000000
6.959752 99.000000
6.961816 99.000000
6.963880 99.000000
6.965944 99.000000
6.968008 99.000000
6.970072 99.000000
6.972136 100.000000
6.974200 100.000000
6.976264 100.000000
6.978328 100.000000
6.980392 100.000000
6.982456 100.000000
6.984520 100.000000
6.986584 100.000000
6.988648 100.000000
6.990712 100.000000
6.992776 100.000000
6.994840 100.000000
6.996904 100.000000
6.998968 100.000000
7.001032 100.000000
7.003096 100.000000
7.005160 100.000000
7.007224 100.000000
7.009288 100.000000
7.011352 100.000000
7.013416 100.000000
7.015480 100.000000
7.017544 100.000000
7.019608 100.000000
7.021672 101.000000
7.023736 101.000000
7.025800 101.000000
7.027864 102.000000
7.029928 102.000000
7.031992 103.000000
7.034056 103.000000
7.036120 104.000000
7.038184 104.000000
7.040248 104.000000
7.042312 103.000000
7.044376 102.000000
7.046440 102.000000
7.048504 102.000000
7.050568 102.000000
7.052632 102.000000
7.054696 102.000000
7.056760 104.000000
7.058824 105.000000
7.060888 106.000000
7.062951 107.000000
7.065015 107.000000
7.067079 104.000000
7.069143 102.000000
7.071207 102.000000
7.073271 102.000000
7.075335 102.000000
7.077399 102.000000
7.079463 101.000000
7.081527 101.000000
7.083591 101.000000
7.085655 101.000000
7.087719 101.000000
7.089783 102.000000
7.091847 102.000000
7.093911 102.000000
7.095975 102.000000
7.098039 102.000000
7.100103 104.000000
7.102167 105.000000
7.104231 106.000000
7.106295 107.000000
7.108359 107.000000
7.110423 107.000000
7.112487 107.000000
7.114551 106.000000
7.116615 106.000000
7.118679 106.000000
7.120743 108.000000
7.122807 108.000000
7.124871 108.000000
7.126935 108.000000
7.128999 108.000000
7.131063 108.000000
7.133127 108.000000
7.135191 108.000000
7.137255 108.000000
7.139319 108.000000
7.141383 108.000000
7.143447 109.000000
7.145511 109.000000
7.147575 109.000000
7.149639 110.000000
7.151703 110.000000
7.153767 111.000000
7.155831 111.000000
7.157895 112.000000
7.159959 113.000000
7.162023 113.000000
7.164087 114.000000
7.166151 116.000000
7.168215 117.000000
7.170279 118.000000
7.172343 119.000000
7.174407 119.000000
7.176471 120.000000
7.178535 120.000000
7.180599 123.000000
7.182663 124.000000
7.184727 125.000000
7.186791 126.000000
7.188854 129.000000
7.190918 135.000000
7.192982 133.000000
7.195046 138.000000
7.197110 142.000000
7.199174 158.000000
7.201238 179.000000
7.203302 162.000000
7.205366 187.000000
7.207430 203.000000
7.209494 204.000000
7.211558 206.000000
7.213622 227.000000
7.215686 248.000000
7.217750 208.000000
7.219814 208.000000
7.221878 226.000000
7.223942 228.000000
7.226006 206.000000
7.228070 318.000000
7.230134 373.000000
7.232198 384.000000
7.234262 274.000000
7.236326 256.000000
7.238390 258.000000
7.240454 262.000000
7.242518 292.000000
7.244582 416.000000
7.246646 355.000000
7.248710 327.000000
7.250774 252.000000
7.252838 209.000000
7.254902 220.000000
7.256966 340.000000
7.259030 372.000000
7.261094 276.000000
7.263158 228.000000
7.265222 223.000000
7.267286 199.000000
7.269350 231.000000
7.271414 299.000000
7.273478 306.000000
7.275542 260.000000
7.277606 263.000000
7.279670 265.000000
7.281734 254.000000
7.283798 276.000000
7.285862 262.000000
7.287926 246.000000
7.289990 267.000000
7.292054 283.000000
7.294118 330.000000
7.296182 426.000000
7.298246 488.000000
7.300310 1245.000000
7.302374 1665.000000
7.304438 1682.000000
7.306502 1532.000000
7.308566 1149.000000
7.310630 923.000000
7.312693 496.000000
7.314757 1384.000000
7.316821 1603.000000
7.318885 1539.000000
7.320949 1052.000000
7.323013 774.000000
7.325077 427.000000
7.327141 290.000000
7.329205 257.000000
7.331269 238.000000
7.333333 228.000000
7.335397 221.000000
7.337461 173.000000
7.339525 155.000000
7.341589 141.000000
7.343653 139.000000
7.345717 137.000000
7.347781 133.000000
7.349845 125.000000
7.351909 120.000000
7.353973 119.000000
7.356037 117.000000
7.358101 116.000000
7.360165 114.000000
7.362229 113.000000
7.364293 112.000000
7.366357 112.000000
7.368421 111.000000
7.370485 110.000000
7.372549 110.000000
7.374613 110.000000
7.376677 110.000000
7.378741 110.000000
7.380805 109.000000
7.382869 109.000000
7.384933 109.000000
7.386997 109.000000
7.389061 109.000000
7.391125 108.000000
7.393189 108.000000
7.395253 108.000000
7.397317 108.000000
7.399381 108.000000
7.401445 111.000000
7.403509 114.000000
7.405573 114.000000
7.407637 111.000000
7.409701 109.000000
7.411765 109.000000
7.413829 109.000000
7.415893 110.000000
7.417957 110.000000
7.420021 110.000000
7.422085 110.000000
7.424149 109.000000
7.426213 108.000000
7.428277 108.000000
7.430341 107.000000
7.432405 104.000000
7.434469 104.000000
7.436533 104.000000
7.438596 104.000000
7.440660 104.000000
7.442724 103.000000
7.444788 103.000000
7.446852 103.000000
7.448916 103.000000
7.450980 103.000000
7.453044 103.000000
7.455108 103.000000
7.457172 102.000000
7.459236 104.000000
7.461300 104.000000
7.463364 104.000000
7.465428 103.000000
7.467492 103.000000
7.469556 102.000000
7.471620 102.000000
7.473684 102.000000
7.475748 102.000000
7.477812 102.000000
7.479876 102.000000
7.481940 102.000000
7.484004 102.000000
7.486068 102.000000
7.488132 102.000000
7.490196 102.000000
7.492260 102.000000
7.494324 102.000000
7.496388 102.000000
7.498452 102.000000
7.500516 104.000000
7.502580 104.000000
7.504644 104.000000
7.506708 103.000000
7.508772 103.000000
7.510836 103.000000
7.512900 103.000000
7.514964 103.000000
7.517028 104.000000
7.519092 104.000000
7.521156 104.000000
7.523220 104.000000
7.525284 104.000000
7.527348 103.000000
7.529412 103.000000
7.531476 103.000000
7.533540 103.000000
7.535604 103.000000
7.537668 103.000000
7.539732 103.000000
7.541796 103.000000
7.543860 103.000000
7.545924 103.000000
7.547988 103.000000
7.550052 103.000000
7.552116 103.000000
7.554180 103.000000
7.556244 103.000000
7.558308 104.000000
7.560372 104.000000
7.562436 105.000000
7.564499 105.000000
7.566563 105.000000
7.568627 105.000000
7.570691 105.000000
7.572755 105.000000
7.574819 104.000000
7.576883 103.000000
7.578947 103.000000
7.581011 103.000000
7.583075 103.000000
7.585139 104.000000
7.587203 104.000000
7.589267 104.000000
7.591331 104.000000
7.593395 103.000000
7.595459 102.000000
7.597523 102.000000
7.599587 101.000000
7.601651 101.000000
7.603715 101.000000
7.605779 100.000000
7.607843 100.000000
7.609907 99.000000
7.611971 99.000000
7.614035 99.000000
7.616099 99.000000
7.618163 99.000000
7.620227 99.000000
7.622291 99.000000
7.624355 99.000000
7.626419 99.000000
7.628483 99.000000
7.630547 99.000000
7.632611 99.000000
7.634675 99.000000
7.636739 99.000000
7.638803 99.000000
7.640867 99.000000
7.642931 99.000000
7.644995 99.000000
7.647059 99.000000
7.649123 99.000000
7.651187 99.000000
7.653251 99.000000
7.655315 99.000000
7.657379 99.000000
7.659443 99.000000
7.661507 99.000000
7.663571 99.000000
7.665635 99.000000
7.667699 99.000000
7.669763 99.000000
7.671827 99.000000
7.673891 99.000000
7.675955 99.000000
7.678019 99.000000
7.680083 99.000000
7.682147 99.000000
7.684211 99.000000
7.686275 99.000000
7.688338 99.000000
7.690402 99.000000
7.692466 99.000000
7.694530 99.000000
7.696594 99.000000
7.698658 99.000000
7.700722 99.000000
7.702786 99.000000
7.704850 99.000000
7.706914 99.000000
7.708978 99.000000
7.711042 99.000000
7.713106 99.000000
7.715170 99.000000
7.717234 99.000000
7.719298 99.000000
7.721362 99.000000
7.723426 99.000000
7.725490 99.000000
7.727554 99.000000
7.729618 99.000000
7.731682 99.000000
7.733746 99.000000
7.735810 99.000000
7.737874 99.000000
7.739938 99.000000
7.742002 98.000000
7.744066 98.000000
7.746130 98.000000
7.748194 98.000000
7.750258 98.000000
7.752322 98.000000
7.754386 98.000000
7.756450 98.000000
7.758514 98.000000
7.760578 98.000000
7.762642 98.000000
7.764706 98.000000
7.766770 98.000000
7.768834 98.000000
7.770898 98.000000
7.772962 98.000000
7.775026 98.000000
7.777090 98.000000
7.779154 98.000000
7.781218 98.000000
7.783282 98.000000
7.785346 98.000000
7.787410 98.000000
7.789474 98.000000
7.791538 98.000000
7.793602 98.000000
7.795666 98.000000
7.797730 98.000000
7.799794 98.000000
7.801858 99.000000
7.803922 99.000000
7.805986 99.000000
7.808050 99.000000
7.810114 99.000000
7.812178 99.000000
7.814241 99.000000
7.816305 99.000000
7.818369 99.000000
7.820433 99.000000
7.822497 98.000000
7.824561 98.000000
7.826625 98.000000
7.828689 98.000000
7.830753 98.000000
7.832817 98.000000
7.834881 98.000000
7.836945 98.000000
7.839009 98.000000
7.841073 98.000000
7.843137 98.000000
7.845201 98.000000
7.847265 98.000000
7.849329 98.000000
7.851393 98.000000
7.853457 99.000000
7.855521 99.000000
7.857585 99.000000
7.859649 99.000000
7.861713 99.000000
7.863777 99.000000
7.865841 99.000000
7.867905 99.000000
7.869969 99.000000
7.872033 99.000000
7.874097 99.000000
7.876161 99.000000
7.878225 99.000000
7.880289 99.000000
7.882353 98.000000
7.884417 98.000000
7.886481 98.000000
7.888545 98.000000
7.890609 98.000000
7.892673 99.000000
7.894737 99.000000
7.896801 99.000000
7.898865 99.000000
7.900929 99.000000
7.902993 99.000000
7.905057 99.000000
7.907121 99.000000
7.909185 99.000000
7.911249 99.000000
7.913313 98.000000
7.915377 98.000000
7.917441 98.000000
7.919505 98.000000
7.921569 98.000000
7.923633 99.000000
7.925697 100.000000
7.927761 100.000000
7.929825 100.000000
7.931889 100.000000
7.933953 99.000000
7.936017 99.000000
7.938080 98.000000
7.940144 98.000000
7.942208 98.000000
7.944272 98.000000
7.946336 98.000000
7.948400 98.000000
7.950464 98.000000
7.952528 98.000000
7.954592 98.000000
7.956656 98.000000
7.958720 98.000000
7.960784 98.000000
7.962848 98.000000
7.964912 98.000000
7.966976 98.000000
7.969040 98.000000
7.971104 98.000000
7.973168 98.000000
7.975232 98.000000
7.977296 98.000000
7.979360 98.000000
7.981424 98.000000
7.983488 98.000000
7.985552 98.000000
7.987616 98.000000
7.989680 98.000000
7.991744 98.000000
7.993808 98.000000
7.995872 98.000000
7.997936 98.000000
8.000000 98.000000
8.002064 98.000000
8.004128 98.000000
8.006192 98.000000
8.008256 98.000000
8.010320 98.000000
8.012384 98.000000
8.014448 98.000000
8.016512 98.000000
8.018576 98.000000
8.020640 98.000000
8.022704 98.000000
8.024768 98.000000
8.026832 98.000000
8.028896 98.000000
8.030960 98.000000
8.033024 98.000000
8.035088 98.000000
8.037152 98.000000
8.039216 98.000000
8.041280 98.000000
8.043344 98.000000
8.045408 98.000000
8.047472 98.000000
8.049536 98.000000
8.051600 98.000000
8.053664 98.000000
8.055728 98.000000
8.057792 98.000000
8.059856 98.000000
8.061920 98.000000
8.063983 98.000000
8.066047 98.000000
8.068111 98.000000
8.070175 98.000000
8.072239 98.000000
8.074303 98.000000
8.076367 98.000000
8.078431 98.000000
8.080495 98.000000
8.082559 98.000000
8.084623 98.000000
8.086687 98.000000
8.088751 98.000000
8.090815 98.000000
8.092879 98.000000
8.094943 98.000000
8.097007 98.000000
8.099071 98.000000
8.101135 98.000000
8.103199 98.000000
8.105263 98.000000
8.107327 98.000000
8.109391 98.000000
8.111455 98.000000
8.113519 98.000000
8.115583 98.000000
8.117647 98.000000
8.119711 97.000000
8.121775 97.000000
8.123839 97.000000
8.125903 97.000000
8.127967 97.000000
8.130031 97.000000
8.132095 97.000000
8.134159 97.000000
8.136223 97.000000
8.138287 97.000000
8.140351 98.000000
8.142415 98.000000
8.144479 98.000000
8.146543 98.000000
8.148607 98.000000
8.150671 98.000000
8.152735 98.000000
8.154799 98.000000
8.156863 98.000000
8.158927 98.000000
8.160991 98.000000
8.163055 98.000000
8.165119 98.000000
8.167183 98.000000
8.169247 98.000000
8.171311 98.000000
8.173375 98.000000
8.175439 98.000000
8.177503 98.000000
8.179567 98.000000
8.181631 98.000000
8.183695 98.000000
8.185759 98.000000
8.187822 98.000000
8.189886 98.000000
8.191950 98.000000
8.194014 98.000000
8.196078 98.000000
8.198142 98.000000
8.200206 98.000000
8.202270 98.000000
8.204334 98.000000
8.206398 98.000000
8.208462 98.000000
8.210526 98.000000
8.212590 98.000000
8.214654 98.000000
8.216718 98.000000
8.218782 98.000000
8.220846 98.000000
8.222910 98.000000
8.224974 98.000000
8.227038 98.000000
8.229102 98.000000
8.231166 98.000000
8.233230 98.000000
8.235294 98.000000
8.237358 98.000000
8.239422 98.000000
8.241486 97.000000
8.243550 97.000000
8.245614 97.000000
8.247678 97.000000
8.249742 97.000000
8.251806 98.000000
8.253870 98.000000
8.255934 98.000000
8.257998 98.000000
8.260062 98.000000
8.262126 98.000000
8.264190 98.000000
8.266254 98.000000
8.268318 98.000000
8.270382 98.000000
8.272446 98.000000
8.274510 98.000000
8.276574 98.000000
8.278638 98.000000
8.280702 98.000000
8.282766 98.000000
8.284830 98.000000
8.286894 98.000000
8.288958 98.000000
8.291022 98.000000
8.293086 98.000000
8.295150 98.000000
8.297214 98.000000
8.299278 98.000000
8.301342 98.000000
8.303406 98.000000
8.305470 98.000000
8.307534 98.000000
8.309598 98.000000
8.311662 98.000000
8.313725 98.000000
8.315789 98.000000
8.317853 98.000000
8.319917 98.000000
8.321981 98.000000
8.324045 98.000000
8.326109 98.000000
8.328173 98.000000
8.330237 98.000000
8.332301 98.000000
8.334365 98.000000
8.336429 98.000000
8.338493 98.000000
8.340557 98.000000
8.342621 98.000000
8.344685 98.000000
8.346749 98.000000
8.348813 98.000000
8.350877 98.000000
8.352941 98.000000
8.355005 98.000000
8.357069 98.000000
8.359133 98.000000
8.361197 98.000000
8.363261 98.000000
8.365325 98.000000
8.367389 98.000000
8.369453 98.000000
8.371517 98.000000
8.373581 98.000000
8.375645 98.000000
8.377709 98.000000
8.379773 98.000000
8.381837 98.000000
8.383901 98.000000
8.385965 98.000000
8.388029 98.000000
8.390093 98.000000
8.392157 98.000000
8.394221 98.000000
8.396285 98.000000
8.398349 98.000000
8.400413 98.000000
8.402477 98.000000
8.404541 98.000000
8.406605 98.000000
8.408669 98.000000
8.410733 98.000000
8.412797 98.000000
8.414861 98.000000
8.416925 98.000000
8.418989 98.000000
8.421053 98.000000
8.423117 98.000000
8.425181 98.000000
8.427245 98.000000
8.429309 98.000000
8.431373 98.000000
8.433437 97.000000
8.435501 97.000000
8.437564 97.000000
8.439628 97.000000
8.441692 97.000000
8.443756 97.000000
8.445820 97.000000
8.447884 97.000000
8.449948 97.000000
8.452012 97.000000
8.454076 97.000000
8.456140 97.000000
8.458204 97.000000
8.460268 97.000000
8.462332 97.000000
8.464396 98.000000
8.466460 98.000000
8.468524 98.000000
8.470588 98.000000
8.472652 98.000000
8.474716 98.000000
8.476780 98.000000
8.478844 98.000000
8.480908 98.000000
8.482972 98.000000
8.485036 98.000000
8.487100 98.000000
8.489164 98.000000
8.491228 98.000000
8.493292 98.000000
8.495356 98.000000
8.497420 98.000000
8.499484 98.000000
8.501548 98.000000
8.503612 98.000000
8.505676 98.000000
8.507740 98.000000
8.509804 97.000000
8.511868 97.000000
8.513932 97.000000
8.515996 97.000000
8.518060 97.000000
8.520124 97.000000
8.522188 97.000000
8.524252 98.000000
8.526316 98.000000
8.528380 98.000000
8.530444 98.000000
8.532508 98.000000
8.534572 98.000000
8.536636 98.000000
8.538700 98.000000
8.540764 98.000000
8.542828 98.000000
8.544892 98.000000
8.546956 98.000000
8.549020 98.000000
8.551084 98.000000
8.553148 98.000000
8.555212 97.000000
8.557276 97.000000
8.559340 97.000000
8.561404 97.000000
8.563467 97.000000
8.565531 97.000000
8.567595 97.000000
8.569659 97.000000
8.571723 97.000000
8.573787 97.000000
8.575851 97.000000
8.577915 97.000000
8.579979 97.000000
8.582043 97.000000
8.584107 98.000000
8.586171 98.000000
8.588235 98.000000
8.590299 98.000000
8.592363 98.000000
8.594427 98.000000
8.596491 98.000000
8.598555 98.000000
8.600619 98.000000
8.602683 98.000000
8.604747 98.000000
8.606811 98.000000
8.608875 98.000000
8.610939 98.000000
8.613003 98.000000
8.615067 98.000000
8.617131 98.000000
8.619195 98.000000
8.621259 98.000000
8.623323 98.000000
8.625387 98.000000
8.627451 98.000000
8.629515 98.000000
8.631579 98.000000
8.633643 98.000000
8.635707 98.000000
8.637771 98.000000
8.639835 98.000000
8.641899 98.000000
8.643963 98.000000
8.646027 98.000000
8.648091 98.000000
8.650155 98.000000
8.652219 98.000000
8.654283 98.000000
8.656347 98.000000
8.658411 98.000000
8.660475 97.000000
8.662539 97.000000
8.664603 97.000000
8.666667 97.000000
8.668731 97.000000
8.670795 97.000000
8.672859 97.000000
8.674923 97.000000
8.676987 97.000000
8.679051 97.000000
8.681115 97.000000
8.683179 97.000000
8.685243 97.000000
8.687307 97.000000
8.689370 97.000000
8.691434 97.000000
8.693498 97.000000
8.695562 98.000000
8.697626 98.000000
8.699690 98.000000
8.701754 98.000000
8.703818 98.000000
8.705882 98.000000
8.707946 98.000000
8.710010 98.000000
8.712074 98.000000
8.714138 98.000000
8.716202 97.000000
8.718266 97.000000
8.720330 97.000000
8.722394 97.000000
8.724458 97.000000
8.726522 97.000000
8.728586 97.000000
8.730650 97.000000
8.732714 97.000000
8.734778 97.000000
8.736842 97.000000
8.738906 97.000000
8.740970 97.000000
8.743034 97.000000
8.745098 97.000000
8.747162 97.000000
8.749226 97.000000
8.751290 97.000000
8.753354 97.000000
8.755418 97.000000
8.757482 97.000000
8.759546 97.000000
8.761610 97.000000
8.763674 97.000000
8.765738 97.000000
8.767802 97.000000
8.769866 97.000000
8.771930 97.000000
8.773994 97.000000
8.776058 97.000000
8.778122 97.000000
8.780186 97.000000
8.782250 97.000000
8.784314 97.000000
8.786378 98.000000
8.788442 98.000000
8.790506 98.000000
8.792570 98.000000
8.794634 98.000000
8.796698 98.000000
8.798762 98.000000
8.800826 98.000000
8.802890 98.000000
8.804954 98.000000
8.807018 97.000000
8.809082 97.000000
8.811146 97.000000
8.813209 97.000000
8.815273 97.000000
8.817337 98.000000
8.819401 98.000000
8.821465 98.000000
8.823529 98.000000
8.825593 98.000000
8.827657 98.000000
8.829721 98.000000
8.831785 98.000000
8.833849 98.000000
8.835913 98.000000
8.837977 98.000000
8.840041 98.000000
8.842105 98.000000
8.844169 98.000000
8.846233 98.000000
8.848297 98.000000
8.850361 98.000000
8.852425 98.000000
8.854489 98.000000
8.856553 98.000000
8.858617 98.000000
8.860681 98.000000
8.862745 98.000000
8.864809 98.000000
8.866873 97.000000
8.868937 97.000000
8.871001 97.000000
8.873065 97.000000
8.875129 97.000000
8.877193 98.000000
8.879257 98.000000
8.881321 98.000000
8.883385 98.000000
8.885449 98.000000
8.887513 98.000000
8.889577 98.000000
8.891641 98.000000
8.893705 98.000000
8.895769 98.000000
8.897833 97.000000
8.899897 97.000000
8.901961 97.000000
8.904025 97.000000
8.906089 97.000000
8.908153 97.000000
8.910217 97.000000
8.912281 97.000000
8.914345 97.000000
8.916409 97.000000
8.918473 98.000000
8.920537 98.000000
8.922601 98.000000
8.924665 98.000000
8.926729 98.000000
8.928793 98.000000
8.930857 98.000000
8.932921 98.000000
8.934985 98.000000
8.937049 98.000000
8.939112 97.000000
8.941176 97.000000
8.943240 97.000000
8.945304 97.000000
8.947368 97.000000
8.949432 98.000000
8.951496 98.000000
8.953560 98.000000
8.955624 98.000000
8.957688 98.000000
8.959752 98.000000
8.961816 98.000000
8.963880 98.000000
8.965944 98.000000
8.968008 97.000000
8.970072 97.000000
8.972136 97.000000
8.974200 97.000000
8.976264 97.000000
8.978328 97.000000
8.980392 97.000000
8.982456 97.000000
8.984520 97.000000
8.986584 97.000000
8.988648 97.000000
8.990712 97.000000
8.992776 97.000000
8.994840 97.000000
8.996904 97.000000
8.998968 97.000000
9.001032 97.000000
9.003096 97.000000
9.005160 97.000000
9.007224 97.000000
9.009288 97.000000
9.011352 97.000000
9.013416 97.000000
9.015480 97.000000
9.017544 97.000000
9.019608 97.000000
9.021672 97.000000
9.023736 97.000000
9.025800 97.000000
9.027864 97.000000
9.029928 97.000000
9.031992 97.000000
9.034056 97.000000
9.036120 97.000000
9.038184 97.000000
9.040248 98.000000
9.042312 98.000000
9.044376 98.000000
9.046440 98.000000
9.048504 98.000000
9.050568 98.000000
9.052632 98.000000
9.054696 98.000000
9.056760 98.000000
9.058824 97.000000
9.060888 97.000000
9.062951 97.000000
9.065015 97.000000
9.067079 97.000000
9.069143 97.000000
9.071207 97.000000
9.073271 97.000000
9.075335 97.000000
9.077399 97.000000
9.079463 97.000000
9.081527 97.000000
9.083591 97.000000
9.085655 97.000000
9.087719 97.000000
9.089783 98.000000
9.091847 98.000000
9.093911 98.000000
9.095975 98.000000
9.098039 98.000000
9.100103 98.000000
9.102167 98.000000
9.104231 98.000000
9.106295 98.000000
9.108359 98.000000
9.110423 97.000000
9.112487 97.000000
9.114551 97.000000
9.116615 97.000000
9.118679 97.000000
9.120743 97.000000
9.122807 97.000000
9.124871 97.000000
9.126935 97.000000
9.128999 97.000000
9.131063 98.000000
9.133127 98.000000
9.135191 98.000000
9.137255 98.000000
9.139319 98.000000
9.141383 98.000000
9.143447 98.000000
9.145511 98.000000
9.147575 98.000000
9.149639 97.000000
9.151703 97.000000
9.153767 97.000000
9.155831 97.000000
9.157895 97.000000
9.159959 97.000000
9.162023 97.000000
9.164087 97.000000
9.166151 97.000000
9.168215 97.000000
9.170279 97.000000
9.172343 97.000000
9.174407 97.000000
9.176471 97.000000
9.178535 97.000000
9.180599 98.000000
9.182663 98.000000
9.184727 98.000000
9.186791 98.000000
9.188854 98.000000
9.190918 98.000000
9.192982 98.000000
9.195046 98.000000
9.197110 98.000000
9.199174 98.000000
9.201238 97.000000
9.203302 97.000000
9.205366 97.000000
9.207430 97.000000
9.209494 97.000000
9.211558 97.000000
9.213622 97.000000
9.215686 97.000000
9.217750 97.000000
9.219814 97.000000
9.221878 96.000000
9.223942 96.000000
9.226006 96.000000
9.228070 96.000000
9.230134 96.000000
9.232198 96.000000
9.234262 96.000000
9.236326 96.000000
9.238390 96.000000
9.240454 97.000000
9.242518 97.000000
9.244582 97.000000
9.246646 97.000000
9.248710 97.000000
9.250774 97.000000
9.252838 97.000000
9.254902 97.000000
9.256966 97.000000
9.259030 97.000000
9.261094 97.000000
9.263158 97.000000
9.265222 97.000000
9.267286 97.000000
9.269350 97.000000
9.271414 97.000000
9.273478 97.000000
9.275542 97.000000
9.277606 97.000000
9.279670 97.000000
9.281734 97.000000
9.283798 97.000000
9.285862 97.000000
9.287926 97.000000
9.289990 97.000000
9.292054 97.000000
9.294118 97.000000
9.296182 97.000000
9.298246 97.000000
9.300310 97.000000
9.302374 97.000000
9.304438 97.000000
9.306502 97.000000
9.308566 97.000000
9.310630 97.000000
9.312693 98.000000
9.314757 98.000000
9.316821 98.000000
9.318885 98.000000
9.320949 98.000000
9.323013 98.000000
9.325077 98.000000
9.327141 98.000000
9.329205 98.000000
9.331269 98.000000
9.333333 98.000000
9.335397 98.000000
9.337461 98.000000
9.339525 98.000000
9.341589 98.000000
9.343653 98.000000
9.345717 98.000000
9.347781 97.000000
9.349845 97.000000
9.351909 97.000000
9.353973 97.000000
9.356037 97.000000
9.358101 98.000000
9.360165 98.000000
9.362229 98.000000
9.364293 98.000000
9.366357 98.000000
9.368421 98.000000
9.370485 98.000000
9.372549 97.000000
9.374613 97.000000
9.376677 97.000000
9.378741 97.000000
9.380805 97.000000
9.382869 97.000000
9.384933 97.000000
9.386997 97.000000
9.389061 97.000000
9.391125 97.000000
9.393189 97.000000
9.395253 97.000000
9.397317 97.000000
9.399381 97.000000
9.401445 97.000000
9.403509 97.000000
9.405573 97.000000
9.407637 97.000000
9.409701 97.000000
9.411765 97.000000
9.413829 97.000000
9.415893 97.000000
9.417957 97.000000
9.420021 97.000000
9.422085 97.000000
9.424149 97.000000
9.426213 97.000000
9.428277 97.000000
9.430341 97.000000
9.432405 97.000000
9.434469 97.000000
9.436533 97.000000
9.438596 97.000000
9.440660 97.000000
9.442724 97.000000
9.444788 97.000000
9.446852 97.000000
9.448916 97.000000
9.450980 97.000000
9.453044 97.000000
9.455108 97.000000
9.457172 97.000000
9.459236 97.000000
9.461300 97.000000
9.463364 97.000000
9.465428 97.000000
9.467492 97.000000
9.469556 97.000000
9.471620 97.000000
9.473684 97.000000
9.475748 97.000000
9.477812 97.000000
9.479876 97.000000
9.481940 97.000000
9.484004 97.000000
9.486068 97.000000
9.488132 97.000000
9.490196 97.000000
9.492260 97.000000
9.494324 97.000000
9.496388 97.000000
9.498452 97.000000
9.500516 97.000000
9.502580 97.000000
9.504644 97.000000
9.506708 97.000000
9.508772 97.000000
9.510836 97.000000
9.512900 97.000000
9.514964 97.000000
9.517028 97.000000
9.519092 97.000000
9.521156 97.000000
9.523220 97.000000
9.525284 97.000000
9.527348 97.000000
9.529412 97.000000
9.531476 97.000000
9.533540 97.000000
9.535604 97.000000
9.537668 97.000000
9.539732 97.000000
9.541796 97.000000
9.543860 97.000000
9.545924 97.000000
9.547988 97.000000
9.550052 97.000000
9.552116 97.000000
9.554180 97.000000
9.556244 97.000000
9.558308 97.000000
9.560372 97.000000
9.562436 97.000000
9.564499 97.000000
9.566563 97.000000
9.568627 97.000000
9.570691 97.000000
9.572755 97.000000
9.574819 97.000000
9.576883 97.000000
9.578947 97.000000
9.581011 97.000000
9.583075 97.000000
9.585139 98.000000
9.587203 98.000000
9.589267 98.000000
9.591331 98.000000
9.593395 98.000000
9.595459 98.000000
9.597523 98.000000
9.599587 98.000000
9.601651 98.000000
9.603715 98.000000
9.605779 97.000000
9.607843 97.000000
9.609907 97.000000
9.611971 97.000000
9.614035 96.000000
9.616099 96.000000
9.618163 96.000000
9.620227 96.000000
9.622291 96.000000
9.624355 97.000000
9.626419 97.000000
9.628483 97.000000
9.630547 97.000000
9.632611 97.000000
9.634675 97.000000
9.636739 97.000000
9.638803 97.000000
9.640867 97.000000
9.642931 97.000000
9.644995 97.000000
9.647059 97.000000
9.649123 97.000000
9.651187 97.000000
9.653251 97.000000
9.655315 97.000000
9.657379 97.000000
9.659443 97.000000
9.661507 97.000000
9.663571 97.000000
9.665635 97.000000
9.667699 97.000000
9.669763 97.000000
9.671827 97.000000
9.673891 97.000000
9.675955 97.000000
9.678019 97.000000
9.680083 97.000000
9.682147 97.000000
9.684211 97.000000
9.686275 97.000000
9.688338 97.000000
9.690402 97.000000
9.692466 97.000000
9.694530 97.000000
9.696594 97.000000
9.698658 97.000000
9.700722 97.000000
9.702786 97.000000
9.704850 97.000000
9.706914 97.000000
9.708978 97.000000
9.711042 97.000000
9.713106 97.000000
9.715170 97.000000
9.717234 97.000000
9.719298 97.000000
9.721362 97.000000
9.723426 97.000000
9.725490 97.000000
9.727554 97.000000
9.729618 97.000000
9.731682 97.000000
9.733746 97.000000
9.735810 97.000000
9.737874 97.000000
9.739938 97.000000
9.742002 97.000000
9.744066 97.000000
9.746130 98.000000
9.748194 98.000000
9.750258 98.000000
9.752322 98.000000
9.754386 98.000000
9.756450 98.000000
9.758514 98.000000
9.760578 98.000000
9.762642 98.000000
9.764706 98.000000
9.766770 98.000000
9.768834 98.000000
9.770898 98.000000
9.772962 98.000000
9.775026 98.000000
9.777090 97.000000
9.779154 97.000000
9.781218 97.000000
9.783282 97.000000
9.785346 97.000000
9.787410 96.000000
9.789474 96.000000
9.791538 96.000000
9.793602 96.000000
9.795666 96.000000
9.797730 96.000000
9.799794 96.000000
9.801858 96.000000
9.803922 96.000000
9.805986 97.000000
9.808050 97.000000
9.810114 97.000000
9.812178 97.000000
9.814241 97.000000
9.816305 97.000000
9.818369 97.000000
9.820433 97.000000
9.822497 97.000000
9.824561 97.000000
9.826625 97.000000
9.828689 97.000000
9.830753 97.000000
9.832817 97.000000
9.834881 97.000000
9.836945 97.000000
9.839009 97.000000
9.841073 97.000000
9.843137 97.000000
9.845201 97.000000
9.847265 97.000000
9.849329 97.000000
9.851393 97.000000
9.853457 97.000000
9.855521 97.000000
9.857585 97.000000
9.859649 97.000000
9.861713 97.000000
9.863777 97.000000
9.865841 97.000000
9.867905 97.000000
9.869969 97.000000
9.872033 97.000000
9.874097 97.000000
9.876161 97.000000
9.878225 97.000000
9.880289 97.000000
9.882353 97.000000
9.884417 97.000000
9.886481 97.000000
9.888545 97.000000
9.890609 97.000000
9.892673 97.000000
9.894737 97.000000
9.896801 97.000000
9.898865 97.000000
9.900929 97.000000
9.902993 97.000000
9.905057 97.000000
9.907121 97.000000
9.909185 97.000000
9.911249 97.000000
9.913313 97.000000
9.915377 97.000000
9.917441 97.000000
9.919505 97.000000
9.921569 97.000000
9.923633 97.000000
9.925697 97.000000
9.927761 97.000000
9.929825 97.000000
9.931889 97.000000
9.933953 97.000000
9.936017 97.000000
9.938080 97.000000
9.940144 97.000000
9.942208 97.000000
9.944272 97.000000
9.946336 97.000000
9.948400 97.000000
9.950464 97.000000
9.952528 97.000000
9.954592 97.000000
9.956656 97.000000
9.958720 96.000000
9.960784 96.000000
9.962848 96.000000
9.964912 96.000000
9.966976 96.000000
9.969040 97.000000
9.971104 97.000000
9.973168 97.000000
9.975232 97.000000
9.977296 97.000000
9.979360 97.000000
9.981424 97.000000
9.983488 97.000000
9.985552 97.000000
9.987616 97.000000
9.989680 97.000000
9.991744 97.000000
9.993808 97.000000
9.995872 97.000000
9.997936 97.000000
10.000000 97.000000
10.002064 97.000000
10.004128 97.000000
10.006192 97.000000
10.008256 97.000000
10.010320 97.000000
10.012384 97.000000
10.014448 97.000000
10.016512 97.000000
10.018576 97.000000
10.020640 97.000000
10.022704 97.000000
10.024768 97.000000
10.026832 97.000000
10.028896 97.000000
10.030960 97.000000
10.033024 97.000000
10.035088 97.000000
10.037152 97.000000
10.039216 96.000000
10.041280 96.000000
10.043344 96.000000
10.045408 96.000000
10.047472 96.000000
10.049536 96.000000
10.051600 96.000000
10.053664 96.000000
10.055728 96.000000
10.057792 96.000000
10.059856 96.000000
10.061920 96.000000
10.063983 96.000000
10.066047 96.000000
10.068111 96.000000
10.070175 96.000000
10.072239 96.000000
10.074303 96.000000
10.076367 96.000000
10.078431 96.000000
10.080495 97.000000
10.082559 97.000000
10.084623 97.000000
10.086687 97.000000
10.088751 97.000000
10.090815 97.000000
10.092879 97.000000
10.094943 97.000000
10.097007 97.000000
10.099071 97.000000
10.101135 97.000000
10.103199 97.000000
10.105263 97.000000
10.107327 97.000000
10.109391 97.000000
10.111455 97.000000
10.113519 97.000000
10.115583 97.000000
10.117647 97.000000
10.119711 97.000000
10.121775 97.000000
10.123839 97.000000
10.125903 97.000000
10.127967 97.000000
10.130031 97.000000
10.132095 97.000000
10.134159 97.000000
10.136223 97.000000
10.138287 97.000000
10.140351 97.000000
10.142415 97.000000
10.144479 97.000000
10.146543 97.000000
10.148607 97.000000
10.150671 97.000000
10.152735 97.000000
10.154799 97.000000
10.156863 97.000000
10.158927 97.000000
10.160991 97.000000
10.163055 97.000000
10.165119 97.000000
10.167183 97.000000
10.169247 97.000000
10.171311 98.000000
10.173375 98.000000
10.175439 98.000000
10.177503 98.000000
10.179567 98.000000
10.181631 98.000000
10.183695 98.000000
10.185759 98.000000
10.187822 98.000000
10.189886 97.000000
10.191950 97.000000
10.194014 97.000000
10.196078 97.000000
10.198142 97.000000
10.200206 97.000000
10.202270 97.000000
10.204334 97.000000
10.206398 97.000000
10.208462 97.000000
10.210526 97.000000
10.212590 97.000000
10.214654 97.000000
10.216718 97.000000
10.218782 97.000000
10.220846 97.000000
10.222910 97.000000
10.224974 97.000000
10.227038 97.000000
10.229102 97.000000
10.231166 97.000000
10.233230 97.000000
10.235294 97.000000
10.237358 97.000000
10.239422 97.000000
10.241486 97.000000
10.243550 97.000000
10.245614 97.000000
10.247678 97.000000
10.249742 97.000000
10.251806 97.000000
10.253870 97.000000
10.255934 97.000000
10.257998 97.000000
10.260062 97.000000
10.262126 97.000000
10.264190 97.000000
10.266254 97.000000
10.268318 97.000000
10.270382 97.000000
10.272446 97.000000
10.274510 97.000000
10.276574 97.000000
10.278638 97.000000
10.280702 97.000000
10.282766 97.000000
10.284830 97.000000
10.286894 97.000000
10.288958 97.000000
10.291022 97.000000
10.293086 97.000000
10.295150 97.000000
10.297214 97.000000
10.299278 97.000000
10.301342 97.000000
10.303406 97.000000
10.305470 97.000000
10.307534 97.000000
10.309598 97.000000
10.311662 97.000000
10.313725 97.000000
10.315789 97.000000
10.317853 97.000000
10.319917 97.000000
10.321981 97.000000
10.324045 97.000000
10.326109 97.000000
10.328173 97.000000
10.330237 97.000000
10.332301 97.000000
10.334365 97.000000
10.336429 97.000000
10.338493 97.000000
10.340557 97.000000
10.342621 97.000000
10.344685 97.000000
10.346749 97.000000
10.348813 97.000000
10.350877 97.000000
10.352941 97.000000
10.355005 97.000000
10.357069 97.000000
10.359133 97.000000
10.361197 97.000000
10.363261 97.000000
10.365325 97.000000
10.367389 97.000000
10.369453 97.000000
10.371517 97.000000
10.373581 97.000000
10.375645 97.000000
10.377709 97.000000
10.379773 97.000000
10.381837 97.000000
10.383901 97.000000
10.385965 97.000000
10.388029 97.000000
10.390093 97.000000
10.392157 97.000000
10.394221 97.000000
10.396285 97.000000
10.398349 97.000000
10.400413 97.000000
10.402477 97.000000
10.404541 97.000000
10.406605 97.000000
10.408669 97.000000
10.410733 97.000000
10.412797 97.000000
10.414861 97.000000
10.416925 97.000000
10.418989 97.000000
10.421053 97.000000
10.423117 97.000000
10.425181 97.000000
10.427245 97.000000
10.429309 97.000000
10.431373 97.000000
10.433437 96.000000
10.435501 96.000000
10.437564 96.000000
10.439628 96.000000
10.441692 96.000000
10.443756 97.000000
10.445820 97.000000
10.447884 97.000000
10.449948 97.000000
10.452012 97.000000
10.454076 97.000000
10.456140 97.000000
10.458204 97.000000
10.460268 97.000000
10.462332 97.000000
10.464396 97.000000
10.466460 97.000000
10.468524 97.000000
10.470588 97.000000
10.472652 97.000000
10.474716 97.000000
10.476780 97.000000
10.478844 97.000000
10.480908 97.000000
10.482972 97.000000
10.485036 97.000000
10.487100 97.000000
10.489164 97.000000
10.491228 97.000000
10.493292 97.000000
10.495356 97.000000
10.497420 97.000000
10.499484 97.000000
10.501548 97.000000
10.503612 97.000000
10.505676 97.000000
10.507740 97.000000
10.509804 97.000000
10.511868 97.000000
10.513932 97.000000
10.515996 97.000000
10.518060 97.000000
10.520124 97.000000
10.522188 97.000000
10.524252 97.000000
10.526316 97.000000
10.528380 97.000000
10.530444 97.000000
10.532508 97.000000
10.534572 97.000000
10.536636 97.000000
10.538700 97.000000
10.540764 97.000000
10.542828 97.000000
10.544892 97.000000
10.546956 97.000000
10.549020 97.000000
10.551084 97.000000
10.553148 97.000000
10.555212 97.000000
10.557276 97.000000
10.559340 97.000000
10.561404 97.000000
10.563467 97.000000
10.565531 97.000000
10.567595 97.000000
10.569659 97.000000
10.571723 97.000000
10.573787 97.000000
10.575851 97.000000
10.577915 97.000000
10.579979 97.000000
10.582043 97.000000
10.584107 97.000000
10.586171 97.000000
10.588235 97.000000
10.590299 97.000000
10.592363 97.000000
10.594427 97.000000
10.596491 97.000000
10.598555 97.000000
10.600619 97.000000
10.602683 97.000000
10.604747 97.000000
10.606811 97.000000
10.608875 97.000000
10.610939 97.000000
10.613003 97.000000
10.615067 96.000000
10.617131 96.000000
10.619195 96.000000
10.621259 96.000000
10.623323 96.000000
10.625387 97.000000
10.627451 97.000000
10.629515 97.000000
10.631579 97.000000
10.633643 97.000000
10.635707 97.000000
10.637771 97.000000
10.639835 97.000000
10.641899 97.000000
10.643963 97.000000
10.646027 97.000000
10.648091 97.000000
10.650155 97.000000
10.652219 97.000000
10.654283 97.000000
10.656347 96.000000
10.658411 96.000000
10.660475 96.000000
10.662539 96.000000
10.664603 97.000000
10.666667 97.000000
10.668731 97.000000
10.670795 97.000000
10.672859 97.000000
10.674923 97.000000
10.676987 97.000000
10.679051 97.000000
10.681115 97.000000
10.683179 97.000000
10.685243 96.000000
10.687307 96.000000
10.689370 96.000000
10.691434 96.000000
10.693498 96.000000
10.695562 97.000000
10.697626 97.000000
10.699690 97.000000
10.701754 97.000000
10.703818 97.000000
10.705882 97.000000
10.707946 97.000000
10.710010 97.000000
10.712074 97.000000
10.714138 97.000000
10.716202 96.000000
10.718266 96.000000
10.720330 96.000000
10.722394 96.000000
10.724458 96.000000
10.726522 96.000000
10.728586 96.000000
10.730650 96.000000
10.732714 96.000000
10.734778 96.000000
10.736842 97.000000
10.738906 97.000000
10.740970 97.000000
10.743034 97.000000
10.745098 97.000000
10.747162 97.000000
10.749226 97.000000
10.751290 97.000000
10.753354 97.000000
10.755418 97.000000
10.757482 97.000000
10.759546 97.000000
10.761610 97.000000
10.763674 97.000000
10.765738 97.000000
10.767802 97.000000
10.769866 97.000000
10.771930 97.000000
10.773994 97.000000
10.776058 97.000000
10.778122 97.000000
10.780186 97.000000
10.782250 97.000000
10.784314 97.000000
10.786378 97.000000
10.788442 97.000000
10.790506 97.000000
10.792570 97.000000
10.794634 97.000000
10.796698 97.000000
10.798762 97.000000
10.800826 97.000000
10.802890 97.000000
10.804954 97.000000
10.807018 97.000000
10.809082 97.000000
10.811146 97.000000
10.813209 97.000000
10.815273 97.000000
10.817337 97.000000
10.819401 97.000000
10.821465 97.000000
10.823529 97.000000
10.825593 97.000000
10.827657 97.000000
10.829721 97.000000
10.831785 97.000000
10.833849 97.000000
10.835913 97.000000
10.837977 97.000000
10.840041 97.000000
10.842105 97.000000
10.844169 97.000000
10.846233 97.000000
10.848297 96.000000
10.850361 96.000000
10.852425 96.000000
10.854489 96.000000
10.856553 96.000000
10.858617 96.000000
10.860681 96.000000
10.862745 96.000000
10.864809 96.000000
10.866873 97.000000
10.868937 97.000000
10.871001 97.000000
10.873065 97.000000
10.875129 97.000000
10.877193 97.000000
10.879257 97.000000
10.881321 97.000000
10.883385 97.000000
10.885449 97.000000
10.887513 96.000000
10.889577 96.000000
10.891641 96.000000
10.893705 96.000000
10.895769 96.000000
10.897833 97.000000
10.899897 97.000000
10.901961 97.000000
10.904025 97.000000
10.906089 97.000000
10.908153 97.000000
10.910217 97.000000
10.912281 97.000000
10.914345 97.000000
10.916409 97.000000
10.918473 97.000000
10.920537 97.000000
10.922601 97.000000
10.924665 97.000000
10.926729 97.000000
10.928793 97.000000
10.930857 97.000000
10.932921 97.000000
10.934985 97.000000
10.937049 97.000000
10.939112 97.000000
10.941176 97.000000
10.943240 97.000000
10.945304 97.000000
10.947368 97.000000
10.949432 97.000000
10.951496 97.000000
10.953560 97.000000
10.955624 97.000000
10.957688 97.000000
10.959752 97.000000
10.961816 97.000000
10.963880 97.000000
10.965944 97.000000
10.968008 97.000000
10.970072 97.000000
10.972136 97.000000
10.974200 97.000000
10.976264 97.000000
10.978328 97.000000
10.980392 97.000000
10.982456 97.000000
10.984520 97.000000
10.986584 97.000000
10.988648 97.000000
10.990712 97.000000
10.992776 97.000000
10.994840 98.000000
10.996904 98.000000
10.998968 98.000000
11.001032 98.000000
11.003096 98.000000
11.005160 98.000000
11.007224 98.000000
11.009288 97.000000
11.011352 97.000000
11.013416 97.000000
11.015480 97.000000
11.017544 97.000000
11.019608 96.000000
11.021672 96.000000
11.023736 96.000000
11.025800 96.000000
11.027864 96.000000
11.029928 96.000000
11.031992 96.000000
11.034056 96.000000
11.036120 96.000000
11.038184 97.000000
11.040248 97.000000
11.042312 97.000000
11.044376 97.000000
11.046440 97.000000
11.048504 97.000000
11.050568 97.000000
11.052632 97.000000
11.054696 97.000000
11.056760 97.000000
11.058824 97.000000
11.060888 97.000000
11.062951 97.000000
11.065015 97.000000
11.067079 97.000000
11.069143 97.000000
11.071207 97.000000
11.073271 97.000000
11.075335 97.000000
11.077399 97.000000
11.079463 96.000000
11.081527 96.000000
11.083591 96.000000
11.085655 96.000000
11.087719 96.000000
11.089783 96.000000
11.091847 96.000000
11.093911 96.000000
11.095975 96.000000
11.098039 96.000000
11.100103 97.000000
11.102167 97.000000
11.104231 97.000000
11.106295 97.000000
11.108359 97.000000
11.110423 97.000000
11.112487 97.000000
11.114551 97.000000
11.116615 97.000000
11.118679 97.000000
11.120743 97.000000
11.122807 97.000000
11.124871 97.000000
11.126935 97.000000
11.128999 97.000000
11.131063 97.000000
11.133127 97.000000
11.135191 97.000000
11.137255 97.000000
11.139319 97.000000
11.141383 97.000000
11.143447 97.000000
11.145511 97.000000
11.147575 97.000000
11.149639 97.000000
11.151703 97.000000
11.153767 97.000000
11.155831 97.000000
11.157895 97.000000
11.159959 97.000000
11.162023 97.000000
11.164087 97.000000
11.166151 97.000000
11.168215 97.000000
11.170279 97.000000
11.172343 97.000000
11.174407 97.000000
11.176471 97.000000
11.178535 97.000000
11.180599 97.000000
11.182663 97.000000
11.184727 97.000000
11.186791 97.000000
11.188854 97.000000
11.190918 97.000000
11.192982 97.000000
11.195046 97.000000
11.197110 97.000000
11.199174 97.000000
11.201238 97.000000
11.203302 97.000000
11.205366 97.000000
11.207430 97.000000
11.209494 97.000000
11.211558 97.000000
11.213622 97.000000
11.215686 97.000000
11.217750 97.000000
11.219814 97.000000
11.221878 97.000000
11.223942 97.000000
11.226006 97.000000
11.228070 97.000000
11.230134 97.000000
11.232198 97.000000
11.234262 97.000000
11.236326 97.000000
11.238390 97.000000
11.240454 97.000000
11.242518 97.000000
11.244582 97.000000
11.246646 97.000000
11.248710 97.000000
11.250774 97.000000
11.252838 97.000000
11.254902 97.000000
11.256966 97.000000
11.259030 97.000000
11.261094 97.000000
11.263158 97.000000
11.265222 97.000000
11.267286 97.000000
11.269350 97.000000
11.271414 97.000000
11.273478 97.000000
11.275542 97.000000
11.277606 97.000000
11.279670 97.000000
11.281734 96.000000
11.283798 96.000000
11.285862 96.000000
11.287926 96.000000
11.289990 96.000000
11.292054 96.000000
11.294118 96.000000
11.296182 96.000000
11.298246 96.000000
11.300310 96.000000
11.302374 97.000000
11.304438 97.000000
11.306502 97.000000
11.308566 97.000000
11.310630 97.000000
11.312693 97.000000
11.314757 97.000000
11.316821 97.000000
11.318885 97.000000
11.320949 97.000000
11.323013 97.000000
11.325077 97.000000
11.327141 97.000000
11.329205 97.000000
11.331269 97.000000
11.333333 97.000000
11.335397 97.000000
11.337461 97.000000
11.339525 97.000000
11.341589 97.000000
11.343653 97.000000
11.345717 97.000000
11.347781 97.000000
11.349845 97.000000
11.351909 97.000000
11.353973 97.000000
11.356037 97.000000
11.358101 97.000000
11.360165 97.000000
11.362229 97.000000
11.364293 97.000000
11.366357 97.000000
11.368421 97.000000
11.370485 97.000000
11.372549 97.000000
11.374613 97.000000
11.376677 97.000000
11.378741 97.000000
11.380805 97.000000
11.382869 97.000000
11.384933 97.000000
11.386997 97.000000
11.389061 97.000000
11.391125 97.000000
11.393189 97.000000
11.395253 97.000000
11.397317 97.000000
11.399381 97.000000
11.401445 97.000000
11.403509 97.000000
11.405573 97.000000
11.407637 97.000000
11.409701 97.000000
11.411765 97.000000
11.413829 97.000000
11.415893 97.000000
11.417957 97.000000
11.420021 97.000000
11.422085 97.000000
11.424149 97.000000
11.426213 97.000000
11.428277 97.000000
11.430341 97.000000
11.432405 97.000000
11.434469 97.000000
11.436533 97.000000
11.438596 97.000000
11.440660 97.000000
11.442724 97.000000
11.444788 97.000000
11.446852 97.000000
11.448916 97.000000
11.450980 97.000000
11.453044 97.000000
11.455108 97.000000
11.457172 97.000000
11.459236 97.000000
11.461300 97.000000
11.463364 96.000000
11.465428 96.000000
11.467492 96.000000
11.469556 96.000000
11.471620 96.000000
11.473684 97.000000
11.475748 97.000000
11.477812 97.000000
11.479876 97.000000
11.481940 97.000000
11.484004 97.000000
11.486068 97.000000
11.488132 97.000000
11.490196 97.000000
11.492260 97.000000
11.494324 97.000000
11.496388 97.000000
11.498452 97.000000
11.500516 97.000000
11.502580 97.000000
11.504644 97.000000
11.506708 97.000000
11.508772 97.000000
11.510836 97.000000
11.512900 98.000000
11.514964 98.000000
11.517028 98.000000
11.519092 98.000000
11.521156 98.000000
11.523220 98.000000
11.525284 98.000000
11.527348 98.000000
11.529412 97.000000
11.531476 97.000000
11.533540 97.000000
11.535604 97.000000
11.537668 97.000000
11.539732 97.000000
11.541796 97.000000
11.543860 97.000000
11.545924 97.000000
11.547988 97.000000
11.550052 97.000000
11.552116 97.000000
11.554180 97.000000
11.556244 97.000000
11.558308 97.000000
11.560372 97.000000
11.562436 97.000000
11.564499 96.000000
11.566563 96.000000
11.568627 96.000000
11.570691 96.000000
11.572755 96.000000
11.574819 97.000000
11.576883 97.000000
11.578947 97.000000
11.581011 97.000000
11.583075 97.000000
11.585139 97.000000
11.587203 97.000000
11.589267 97.000000
11.591331 97.000000
11.593395 97.000000
11.595459 97.000000
11.597523 97.000000
11.599587 97.000000
11.601651 97.000000
11.603715 97.000000
11.605779 97.000000
11.607843 97.000000
11.609907 97.000000
11.611971 97.000000
11.614035 97.000000
11.616099 97.000000
11.618163 97.000000
11.620227 97.000000
11.622291 97.000000
11.624355 97.000000
11.626419 97.000000
11.628483 97.000000
11.630547 97.000000
11.632611 97.000000
11.634675 97.000000
11.636739 97.000000
11.638803 97.000000
11.640867 97.000000
11.642931 97.000000
11.644995 97.000000
11.647059 97.000000
11.649123 97.000000
11.651187 97.000000
11.653251 97.000000
11.655315 97.000000
11.657379 97.000000
11.659443 97.000000
11.661507 97.000000
11.663571 97.000000
11.665635 97.000000
11.667699 97.000000
11.669763 97.000000
11.671827 97.000000
11.673891 97.000000
11.675955 97.000000
11.678019 97.000000
11.680083 97.000000
11.682147 97.000000
11.684211 97.000000
11.686275 96.000000
11.688338 96.000000
11.690402 96.000000
11.692466 96.000000
11.694530 96.000000
11.696594 96.000000
11.698658 96.000000
11.700722 96.000000
11.702786 96.000000
11.704850 96.000000
11.706914 96.000000
11.708978 96.000000
11.711042 96.000000
11.713106 96.000000
11.715170 97.000000
11.717234 97.000000
11.719298 97.000000
11.721362 97.000000
11.723426 97.000000
11.725490 97.000000
11.727554 97.000000
11.729618 97.000000
11.731682 97.000000
11.733746 97.000000
11.735810 96.000000
11.737874 96.000000
11.739938 96.000000
11.742002 96.000000
11.744066 96.000000
11.746130 96.000000
11.748194 96.000000
11.750258 96.000000
11.752322 96.000000
11.754386 96.000000
11.756450 96.000000
11.758514 96.000000
11.760578 96.000000
11.762642 96.000000
11.764706 96.000000
11.766770 96.000000
##END=
