##TITLE= TP_Ejercicio_1c [75 MHz ¹³C NMR en CDCl₃]
##JCAMP-DX= 5.00
##ORIGIN= LISA RMN DB
##DATA TYPE= NMR SPECTRUM
##DATA CLASS= XYDATA
##$BF1= 75.45
##$SFO1= 75.45
##$NUC1= <13C>
##XUNITS=	PPM
##YUNITS=	Intensity
##NPOINTS=	5262
##FIRSTX=	-26.973564
##LASTX=	236.795807
##FIRSTY=	66.000000
##LASTY=	66.000000
##XFACTOR= 1
##YFACTOR= 1
##MAXY= 2153.000000
##MINY= 0.000000
##DELTAX= 0.050137
##XYDATA=(X++(Y..Y))
-26.973564 66.000000
-26.923428 42.000000
-26.873291 46.000000
-26.823154 49.000000
-26.773017 48.000000
-26.722881 67.000000
-26.672744 65.000000
-26.622607 72.000000
-26.572470 77.000000
-26.522334 61.000000
-26.472197 75.000000
-26.422060 76.000000
-26.371923 68.000000
-26.321787 64.000000
-26.271650 53.000000
-26.221513 41.000000
-26.171376 56.000000
-26.121240 94.000000
-26.071103 56.000000
-26.020966 72.000000
-25.970830 32.000000
-25.920693 26.000000
-25.870556 64.000000
-25.820419 76.000000
-25.770283 78.000000
-25.720146 41.000000
-25.670009 35.000000
-25.619872 43.000000
-25.569736 42.000000
-25.519599 71.000000
-25.469462 73.000000
-25.419325 60.000000
-25.369189 43.000000
-25.319052 39.000000
-25.268915 50.000000
-25.218778 63.000000
-25.168642 39.000000
-25.118505 24.000000
-25.068368 73.000000
-25.018232 41.000000
-24.968095 33.000000
-24.917958 58.000000
-24.867821 49.000000
-24.817685 26.000000
-24.767548 52.000000
-24.717411 18.000000
-24.667274 58.000000
-24.617138 57.000000
-24.567001 49.000000
-24.516864 41.000000
-24.466727 88.000000
-24.416591 64.000000
-24.366454 53.000000
-24.316317 74.000000
-24.266180 36.000000
-24.216044 66.000000
-24.165907 37.000000
-24.115770 90.000000
-24.065634 59.000000
-24.015497 51.000000
-23.965360 51.000000
-23.915223 63.000000
-23.865087 58.000000
-23.814950 52.000000
-23.764813 63.000000
-23.714676 83.000000
-23.664540 85.000000
-23.614403 39.000000
-23.564266 75.000000
-23.514129 42.000000
-23.463993 34.000000
-23.413856 94.000000
-23.363719 97.000000
-23.313582 63.000000
-23.263446 91.000000
-23.213309 75.000000
-23.163172 45.000000
-23.113036 46.000000
-23.062899 74.000000
-23.012762 75.000000
-22.962625 41.000000
-22.912489 45.000000
-22.862352 45.000000
-22.812215 63.000000
-22.762078 57.000000
-22.711942 56.000000
-22.661805 37.000000
-22.611668 26.000000
-22.561531 44.000000
-22.511395 79.000000
-22.461258 79.000000
-22.411121 36.000000
-22.360985 38.000000
-22.310848 45.000000
-22.260711 64.000000
-22.210574 70.000000
-22.160438 47.000000
-22.110301 36.000000
-22.060164 36.000000
-22.010027 55.000000
-21.959891 54.000000
-21.909754 49.000000
-21.859617 42.000000
-21.809480 30.000000
-21.759344 38.000000
-21.709207 45.000000
-21.659070 39.000000
-21.608933 33.000000
-21.558797 58.000000
-21.508660 28.000000
-21.458523 26.000000
-21.408387 70.000000
-21.358250 71.000000
-21.308113 61.000000
-21.257976 44.000000
-21.207840 51.000000
-21.157703 43.000000
-21.107566 54.000000
-21.057429 36.000000
-21.007293 39.000000
-20.957156 43.000000
-20.907019 73.000000
-20.856882 64.000000
-20.806746 47.000000
-20.756609 46.000000
-20.706472 37.000000
-20.656335 38.000000
-20.606199 44.000000
-20.556062 77.000000
-20.505925 82.000000
-20.455789 34.000000
-20.405652 83.000000
-20.355515 56.000000
-20.305378 58.000000
-20.255242 69.000000
-20.205105 40.000000
-20.154968 50.000000
-20.104831 57.000000
-20.054695 39.000000
-20.004558 70.000000
-19.954421 53.000000
-19.904284 13.000000
-19.854148 51.000000
-19.804011 66.000000
-19.753874 72.000000
-19.703737 42.000000
-19.653601 105.000000
-19.603464 81.000000
-19.553327 74.000000
-19.503191 39.000000
-19.453054 48.000000
-19.402917 48.000000
-19.352780 40.000000
-19.302644 63.000000
-19.252507 50.000000
-19.202370 79.000000
-19.152233 34.000000
-19.102097 37.000000
-19.051960 19.000000
-19.001823 45.000000
-18.951686 48.000000
-18.901550 52.000000
-18.851413 61.000000
-18.801276 36.000000
-18.751139 34.000000
-18.701003 37.000000
-18.650866 33.000000
-18.600729 106.000000
-18.550593 0.000000
-18.500456 3.000000
-18.450319 31.000000
-18.400182 25.000000
-18.350046 32.000000
-18.299909 36.000000
-18.249772 22.000000
-18.199635 52.000000
-18.149499 72.000000
-18.099362 29.000000
-18.049225 31.000000
-17.999088 50.000000
-17.948952 42.000000
-17.898815 76.000000
-17.848678 45.000000
-17.798541 51.000000
-17.748405 62.000000
-17.698268 37.000000
-17.648131 45.000000
-17.597995 48.000000
-17.547858 34.000000
-17.497721 60.000000
-17.447584 63.000000
-17.397448 60.000000
-17.347311 56.000000
-17.297174 48.000000
-17.247037 22.000000
-17.196901 52.000000
-17.146764 42.000000
-17.096627 48.000000
-17.046490 26.000000
-16.996354 94.000000
-16.946217 98.000000
-16.896080 39.000000
-16.845943 19.000000
-16.795807 66.000000
-16.745670 66.000000
-16.695533 60.000000
-16.645397 63.000000
-16.595260 44.000000
-16.545123 51.000000
-16.494986 71.000000
-16.444850 21.000000
-16.394713 67.000000
-16.344576 26.000000
-16.294439 19.000000
-16.244303 52.000000
-16.194166 37.000000
-16.144029 37.000000
-16.093892 44.000000
-16.043756 1.000000
-15.993619 64.000000
-15.943482 69.000000
-15.893345 44.000000
-15.843209 81.000000
-15.793072 64.000000
-15.742935 32.000000
-15.692799 116.000000
-15.642662 82.000000
-15.592525 67.000000
-15.542388 48.000000
-15.492252 43.000000
-15.442115 42.000000
-15.391978 51.000000
-15.341841 66.000000
-15.291705 83.000000
-15.241568 57.000000
-15.191431 58.000000
-15.141294 31.000000
-15.091158 41.000000
-15.041021 53.000000
-14.990884 46.000000
-14.940747 43.000000
-14.890611 82.000000
-14.840474 50.000000
-14.790337 14.000000
-14.740201 88.000000
-14.690064 36.000000
-14.639927 37.000000
-14.589790 70.000000
-14.539654 33.000000
-14.489517 27.000000
-14.439380 67.000000
-14.389243 21.000000
-14.339107 60.000000
-14.288970 87.000000
-14.238833 74.000000
-14.188696 52.000000
-14.138560 82.000000
-14.088423 84.000000
-14.038286 56.000000
-13.988149 57.000000
-13.938013 39.000000
-13.887876 39.000000
-13.837739 33.000000
-13.787603 67.000000
-13.737466 68.000000
-13.687329 72.000000
-13.637192 66.000000
-13.587056 56.000000
-13.536919 57.000000
-13.486782 54.000000
-13.436645 47.000000
-13.386509 28.000000
-13.336372 55.000000
-13.286235 29.000000
-13.236098 43.000000
-13.185962 46.000000
-13.135825 23.000000
-13.085688 60.000000
-13.035552 56.000000
-12.985415 57.000000
-12.935278 13.000000
-12.885141 56.000000
-12.835005 57.000000
-12.784868 50.000000
-12.734731 38.000000
-12.684594 60.000000
-12.634458 51.000000
-12.584321 37.000000
-12.534184 67.000000
-12.484047 47.000000
-12.433911 76.000000
-12.383774 79.000000
-12.333637 30.000000
-12.283500 70.000000
-12.233364 81.000000
-12.183227 63.000000
-12.133090 43.000000
-12.082954 36.000000
-12.032817 25.000000
-11.982680 40.000000
-11.932543 30.000000
-11.882407 27.000000
-11.832270 48.000000
-11.782133 43.000000
-11.731996 48.000000
-11.681860 51.000000
-11.631723 66.000000
-11.581586 67.000000
-11.531449 82.000000
-11.481313 85.000000
-11.431176 29.000000
-11.381039 53.000000
-11.330902 58.000000
-11.280766 76.000000
-11.230629 58.000000
-11.180492 37.000000
-11.130356 44.000000
-11.080219 50.000000
-11.030082 51.000000
-10.979945 64.000000
-10.929809 22.000000
-10.879672 48.000000
-10.829535 50.000000
-10.779398 51.000000
-10.729262 19.000000
-10.679125 55.000000
-10.628988 62.000000
-10.578851 67.000000
-10.528715 30.000000
-10.478578 67.000000
-10.428441 71.000000
-10.378304 70.000000
-10.328168 72.000000
-10.278031 37.000000
-10.227894 43.000000
-10.177758 69.000000
-10.127621 55.000000
-10.077484 62.000000
-10.027347 41.000000
-9.977211 38.000000
-9.927074 39.000000
-9.876937 81.000000
-9.826800 24.000000
-9.776664 39.000000
-9.726527 25.000000
-9.676390 80.000000
-9.626253 82.000000
-9.576117 59.000000
-9.525980 71.000000
-9.475843 46.000000
-9.425706 94.000000
-9.375570 25.000000
-9.325433 44.000000
-9.275296 51.000000
-9.225160 91.000000
-9.175023 74.000000
-9.124886 76.000000
-9.074749 72.000000
-9.024613 47.000000
-8.974476 45.000000
-8.924339 63.000000
-8.874202 94.000000
-8.824066 81.000000
-8.773929 48.000000
-8.723792 57.000000
-8.673655 74.000000
-8.623519 54.000000
-8.573382 70.000000
-8.523245 84.000000
-8.473108 87.000000
-8.422972 72.000000
-8.372835 75.000000
-8.322698 75.000000
-8.272562 96.000000
-8.222425 94.000000
-8.172288 56.000000
-8.122151 84.000000
-8.072015 70.000000
-8.021878 85.000000
-7.971741 55.000000
-7.921604 58.000000
-7.871468 32.000000
-7.821331 21.000000
-7.771194 72.000000
-7.721057 74.000000
-7.670921 47.000000
-7.620784 51.000000
-7.570647 71.000000
-7.520510 83.000000
-7.470374 116.000000
-7.420237 82.000000
-7.370100 40.000000
-7.319964 54.000000
-7.269827 52.000000
-7.219690 54.000000
-7.169553 68.000000
-7.119417 85.000000
-7.069280 76.000000
-7.019143 66.000000
-6.969006 6.000000
-6.918870 2.000000
-6.868733 45.000000
-6.818596 64.000000
-6.768459 17.000000
-6.718323 10.000000
-6.668186 12.000000
-6.618049 31.000000
-6.567912 65.000000
-6.517776 67.000000
-6.467639 43.000000
-6.417502 14.000000
-6.367366 41.000000
-6.317229 53.000000
-6.267092 62.000000
-6.216955 66.000000
-6.166819 32.000000
-6.116682 54.000000
-6.066545 57.000000
-6.016408 57.000000
-5.966272 30.000000
-5.916135 42.000000
-5.865998 40.000000
-5.815861 51.000000
-5.765725 48.000000
-5.715588 61.000000
-5.665451 62.000000
-5.615314 53.000000
-5.565178 57.000000
-5.515041 19.000000
-5.464904 14.000000
-5.414768 79.000000
-5.364631 52.000000
-5.314494 51.000000
-5.264357 92.000000
-5.214221 96.000000
-5.164084 56.000000
-5.113947 29.000000
-5.063810 18.000000
-5.013674 58.000000
-4.963537 62.000000
-4.913400 65.000000
-4.863263 104.000000
-4.813127 72.000000
-4.762990 3.000000
-4.712853 49.000000
-4.662716 51.000000
-4.612580 70.000000
-4.562443 71.000000
-4.512306 59.000000
-4.462170 46.000000
-4.412033 53.000000
-4.361896 87.000000
-4.311759 42.000000
-4.261623 59.000000
-4.211486 39.000000
-4.161349 50.000000
-4.111212 86.000000
-4.061076 88.000000
-4.010939 81.000000
-3.960802 52.000000
-3.910665 68.000000
-3.860529 69.000000
-3.810392 78.000000
-3.760255 82.000000
-3.710119 36.000000
-3.659982 33.000000
-3.609845 37.000000
-3.559708 43.000000
-3.509572 61.000000
-3.459435 71.000000
-3.409298 61.000000
-3.359161 72.000000
-3.309025 51.000000
-3.258888 49.000000
-3.208751 75.000000
-3.158614 60.000000
-3.108478 76.000000
-3.058341 42.000000
-3.008204 56.000000
-2.958067 35.000000
-2.907931 53.000000
-2.857794 51.000000
-2.807657 52.000000
-2.757521 67.000000
-2.707384 76.000000
-2.657247 79.000000
-2.607110 25.000000
-2.556974 58.000000
-2.506837 29.000000
-2.456700 36.000000
-2.406563 32.000000
-2.356427 40.000000
-2.306290 54.000000
-2.256153 60.000000
-2.206016 66.000000
-2.155880 55.000000
-2.105743 51.000000
-2.055606 31.000000
-2.005469 50.000000
-1.955333 40.000000
-1.905196 42.000000
-1.855059 56.000000
-1.804923 57.000000
-1.754786 32.000000
-1.704649 53.000000
-1.654512 53.000000
-1.604376 51.000000
-1.554239 71.000000
-1.504102 54.000000
-1.453965 94.000000
-1.403829 100.000000
-1.353692 54.000000
-1.303555 33.000000
-1.253418 36.000000
-1.203282 45.000000
-1.153145 65.000000
-1.103008 25.000000
-1.052871 30.000000
-1.002735 28.000000
-0.952598 23.000000
-0.902461 33.000000
-0.852325 80.000000
-0.802188 81.000000
-0.752051 53.000000
-0.701914 23.000000
-0.651778 32.000000
-0.601641 54.000000
-0.551504 58.000000
-0.501367 64.000000
-0.451231 67.000000
-0.401094 5.000000
-0.350957 46.000000
-0.300820 43.000000
-0.250684 49.000000
-0.200547 59.000000
-0.150410 70.000000
-0.100273 67.000000
-0.050137 81.000000
-0.000000 181.000000
0.050137 383.000000
0.100273 81.000000
0.150410 65.000000
0.200547 60.000000
0.250684 83.000000
0.300820 86.000000
0.350957 37.000000
0.401094 58.000000
0.451231 26.000000
0.501367 72.000000
0.551504 93.000000
0.601641 71.000000
0.651778 59.000000
0.701914 64.000000
0.752051 64.000000
0.802188 49.000000
0.852325 50.000000
0.902461 43.000000
0.952598 28.000000
1.002735 23.000000
1.052871 23.000000
1.103008 29.000000
1.153145 22.000000
1.203282 7.000000
1.253418 0.000000
1.303555 58.000000
1.353692 68.000000
1.403829 60.000000
1.453965 37.000000
1.504102 68.000000
1.554239 63.000000
1.604376 66.000000
1.654512 70.000000
1.704649 72.000000
1.754786 32.000000
1.804923 18.000000
1.855059 68.000000
1.905196 46.000000
1.955333 21.000000
2.005469 42.000000
2.055606 45.000000
2.105743 92.000000
2.155880 91.000000
2.206016 79.000000
2.256153 43.000000
2.306290 54.000000
2.356427 31.000000
2.406563 31.000000
2.456700 21.000000
2.506837 88.000000
2.556974 65.000000
2.607110 69.000000
2.657247 87.000000
2.707384 60.000000
2.757521 55.000000
2.807657 64.000000
2.857794 49.000000
2.907931 27.000000
2.958067 49.000000
3.008204 54.000000
3.058341 82.000000
3.108478 55.000000
3.158614 53.000000
3.208751 54.000000
3.258888 62.000000
3.309025 65.000000
3.359161 22.000000
3.409298 52.000000
3.459435 28.000000
3.509572 17.000000
3.559708 61.000000
3.609845 74.000000
3.659982 79.000000
3.710119 36.000000
3.760255 58.000000
3.810392 57.000000
3.860529 44.000000
3.910665 60.000000
3.960802 81.000000
4.010939 66.000000
4.061076 64.000000
4.111212 50.000000
4.161349 12.000000
4.211486 79.000000
4.261623 69.000000
4.311759 69.000000
4.361896 22.000000
4.412033 35.000000
4.462170 72.000000
4.512306 37.000000
4.562443 42.000000
4.612580 42.000000
4.662716 36.000000
4.712853 46.000000
4.762990 46.000000
4.813127 34.000000
4.863263 32.000000
4.913400 66.000000
4.963537 51.000000
5.013674 26.000000
5.063810 66.000000
5.113947 64.000000
5.164084 61.000000
5.214221 27.000000
5.264357 14.000000
5.314494 32.000000
5.364631 15.000000
5.414768 53.000000
5.464904 61.000000
5.515041 63.000000
5.565178 59.000000
5.615314 55.000000
5.665451 29.000000
5.715588 45.000000
5.765725 49.000000
5.815861 52.000000
5.865998 63.000000
5.916135 43.000000
5.966272 45.000000
6.016408 29.000000
6.066545 58.000000
6.116682 62.000000
6.166819 64.000000
6.216955 43.000000
6.267092 62.000000
6.317229 66.000000
6.367366 49.000000
6.417502 82.000000
6.467639 65.000000
6.517776 77.000000
6.567912 75.000000
6.618049 28.000000
6.668186 39.000000
6.718323 51.000000
6.768459 30.000000
6.818596 67.000000
6.868733 68.000000
6.918870 57.000000
6.969006 48.000000
7.019143 52.000000
7.069280 52.000000
7.119417 62.000000
7.169553 75.000000
7.219690 35.000000
7.269827 27.000000
7.319964 10.000000
7.370100 25.000000
7.420237 47.000000
7.470374 28.000000
7.520510 58.000000
7.570647 49.000000
7.620784 49.000000
7.670921 51.000000
7.721057 60.000000
7.771194 72.000000
7.821331 43.000000
7.871468 62.000000
7.921604 22.000000
7.971741 51.000000
8.021878 56.000000
8.072015 78.000000
8.122151 55.000000
8.172288 78.000000
8.222425 81.000000
8.272562 49.000000
8.322698 37.000000
8.372835 43.000000
8.422972 57.000000
8.473108 33.000000
8.523245 92.000000
8.573382 94.000000
8.623519 61.000000
8.673655 69.000000
8.723792 70.000000
8.773929 54.000000
8.824066 70.000000
8.874202 39.000000
8.924339 17.000000
8.974476 25.000000
9.024613 59.000000
9.074749 60.000000
9.124886 61.000000
9.175023 61.000000
9.225160 17.000000
9.275296 17.000000
9.325433 95.000000
9.375570 40.000000
9.425706 47.000000
9.475843 56.000000
9.525980 57.000000
9.576117 43.000000
9.626253 55.000000
9.676390 0.000000
9.726527 21.000000
9.776664 9.000000
9.826800 64.000000
9.876937 104.000000
9.927074 105.000000
9.977211 48.000000
10.027347 37.000000
10.077484 82.000000
10.127621 80.000000
10.177758 109.000000
10.227894 123.000000
10.278031 104.000000
10.328168 74.000000
10.378304 76.000000
10.428441 82.000000
10.478578 81.000000
10.528715 42.000000
10.578851 46.000000
10.628988 64.000000
10.679125 50.000000
10.729262 51.000000
10.779398 48.000000
10.829535 36.000000
10.879672 32.000000
10.929809 46.000000
10.979945 45.000000
11.030082 36.000000
11.080219 64.000000
11.130356 59.000000
11.180492 57.000000
11.230629 64.000000
11.280766 67.000000
11.330902 46.000000
11.381039 71.000000
11.431176 56.000000
11.481313 57.000000
11.531449 61.000000
11.581586 67.000000
11.631723 53.000000
11.681860 42.000000
11.731996 75.000000
11.782133 75.000000
11.832270 30.000000
11.882407 54.000000
11.932543 38.000000
11.982680 31.000000
12.032817 69.000000
12.082954 74.000000
12.133090 78.000000
12.183227 62.000000
12.233364 70.000000
12.283500 71.000000
12.333637 47.000000
12.383774 51.000000
12.433911 64.000000
12.484047 65.000000
12.534184 12.000000
12.584321 75.000000
12.634458 76.000000
12.684594 51.000000
12.734731 52.000000
12.784868 45.000000
12.835005 63.000000
12.885141 144.000000
12.935278 245.000000
12.985415 1774.000000
13.035552 1334.000000
13.085688 133.000000
13.135825 129.000000
13.185962 84.000000
13.236098 33.000000
13.286235 34.000000
13.336372 45.000000
13.386509 54.000000
13.436645 66.000000
13.486782 57.000000
13.536919 40.000000
13.587056 45.000000
13.637192 57.000000
13.687329 90.000000
13.737466 88.000000
13.787603 90.000000
13.837739 67.000000
13.887876 60.000000
13.938013 100.000000
13.988149 75.000000
14.038286 43.000000
14.088423 49.000000
14.138560 64.000000
14.188696 66.000000
14.238833 65.000000
14.288970 63.000000
14.339107 57.000000
14.389243 30.000000
14.439380 27.000000
14.489517 36.000000
14.539654 37.000000
14.589790 68.000000
14.639927 70.000000
14.690064 11.000000
14.740201 65.000000
14.790337 59.000000
14.840474 75.000000
14.890611 70.000000
14.940747 78.000000
14.990884 63.000000
15.041021 57.000000
15.091158 55.000000
15.141294 57.000000
15.191431 58.000000
15.241568 31.000000
15.291705 46.000000
15.341841 46.000000
15.391978 46.000000
15.442115 47.000000
15.492252 39.000000
15.542388 10.000000
15.592525 25.000000
15.642662 42.000000
15.692799 60.000000
15.742935 67.000000
15.793072 51.000000
15.843209 49.000000
15.893345 52.000000
15.943482 78.000000
15.993619 82.000000
16.043756 86.000000
16.093892 10.000000
16.144029 45.000000
16.194166 80.000000
16.244303 52.000000
16.294439 66.000000
16.344576 37.000000
16.394713 42.000000
16.444850 73.000000
16.494986 57.000000
16.545123 30.000000
16.595260 36.000000
16.645397 6.000000
16.695533 48.000000
16.745670 54.000000
16.795807 23.000000
16.845943 70.000000
16.896080 60.000000
16.946217 49.000000
16.996354 41.000000
17.046490 45.000000
17.096627 47.000000
17.146764 81.000000
17.196901 67.000000
17.247037 61.000000
17.297174 39.000000
17.347311 74.000000
17.397448 102.000000
17.447584 32.000000
17.497721 74.000000
17.547858 52.000000
17.597995 60.000000
17.648131 51.000000
17.698268 88.000000
17.748405 79.000000
17.798541 69.000000
17.848678 27.000000
17.898815 88.000000
17.948952 65.000000
17.999088 43.000000
18.049225 55.000000
18.099362 60.000000
18.149499 37.000000
18.199635 52.000000
18.249772 46.000000
18.299909 26.000000
18.350046 59.000000
18.400182 34.000000
18.450319 29.000000
18.500456 38.000000
18.550593 50.000000
18.600729 51.000000
18.650866 40.000000
18.701003 56.000000
18.751139 72.000000
18.801276 66.000000
18.851413 55.000000
18.901550 49.000000
18.951686 44.000000
19.001823 43.000000
19.051960 60.000000
19.102097 38.000000
19.152233 21.000000
19.202370 46.000000
19.252507 50.000000
19.302644 51.000000
19.352780 28.000000
19.402917 76.000000
19.453054 42.000000
19.503191 5.000000
19.553327 45.000000
19.603464 76.000000
19.653601 56.000000
19.703737 37.000000
19.753874 66.000000
19.804011 44.000000
19.854148 88.000000
19.904284 48.000000
19.954421 48.000000
20.004558 46.000000
20.054695 34.000000
20.104831 75.000000
20.154968 81.000000
20.205105 46.000000
20.255242 46.000000
20.305378 29.000000
20.355515 28.000000
20.405652 36.000000
20.455789 52.000000
20.505925 69.000000
20.556062 61.000000
20.606199 54.000000
20.656335 42.000000
20.706472 82.000000
20.756609 39.000000
20.806746 46.000000
20.856882 83.000000
20.907019 78.000000
20.957156 16.000000
21.007293 19.000000
21.057429 44.000000
21.107566 67.000000
21.157703 85.000000
21.207840 44.000000
21.257976 46.000000
21.308113 26.000000
21.358250 41.000000
21.408387 36.000000
21.458523 50.000000
21.508660 51.000000
21.558797 23.000000
21.608933 89.000000
21.659070 66.000000
21.709207 67.000000
21.759344 68.000000
21.809480 54.000000
21.859617 11.000000
21.909754 58.000000
21.959891 61.000000
22.010027 46.000000
22.060164 48.000000
22.110301 31.000000
22.160438 44.000000
22.210574 46.000000
22.260711 93.000000
22.310848 97.000000
22.360985 57.000000
22.411121 45.000000
22.461258 62.000000
22.511395 67.000000
22.561531 69.000000
22.611668 109.000000
22.661805 77.000000
22.711942 53.000000
22.762078 26.000000
22.812215 48.000000
22.862352 42.000000
22.912489 38.000000
22.962625 19.000000
23.012762 62.000000
23.062899 64.000000
23.113036 94.000000
23.163172 40.000000
23.213309 60.000000
23.263446 63.000000
23.313582 60.000000
23.363719 57.000000
23.413856 97.000000
23.463993 73.000000
23.514129 9.000000
23.564266 72.000000
23.614403 67.000000
23.664540 71.000000
23.714676 63.000000
23.764813 47.000000
23.814950 54.000000
23.865087 71.000000
23.915223 51.000000
23.965360 43.000000
24.015497 50.000000
24.065634 15.000000
24.115770 39.000000
24.165907 40.000000
24.216044 37.000000
24.266180 75.000000
24.316317 51.000000
24.366454 64.000000
24.416591 63.000000
24.466727 48.000000
24.516864 52.000000
24.567001 45.000000
24.617138 28.000000
24.667274 25.000000
24.717411 66.000000
24.767548 29.000000
24.817685 75.000000
24.867821 56.000000
24.917958 57.000000
24.968095 69.000000
25.018232 67.000000
25.068368 67.000000
25.118505 50.000000
25.168642 58.000000
25.218778 60.000000
25.268915 69.000000
25.319052 54.000000
25.369189 103.000000
25.419325 72.000000
25.469462 93.000000
25.519599 47.000000
25.569736 45.000000
25.619872 56.000000
25.670009 51.000000
25.720146 80.000000
25.770283 70.000000
25.820419 52.000000
25.870556 54.000000
25.920693 32.000000
25.970830 36.000000
26.020966 99.000000
26.071103 100.000000
26.121240 149.000000
26.171376 225.000000
26.221513 268.000000
26.271650 639.000000
26.321787 2153.000000
26.371923 174.000000
26.422060 62.000000
26.472197 105.000000
26.522334 49.000000
26.572470 46.000000
26.622607 40.000000
26.672744 66.000000
26.722881 87.000000
26.773017 72.000000
26.823154 73.000000
26.873291 70.000000
26.923428 52.000000
26.973564 76.000000
27.023701 62.000000
27.073838 88.000000
27.123974 90.000000
27.174111 63.000000
27.224248 52.000000
27.274385 85.000000
27.324521 87.000000
27.374658 87.000000
27.424795 67.000000
27.474932 30.000000
27.525068 27.000000
27.575205 63.000000
27.625342 61.000000
27.675479 58.000000
27.725615 64.000000
27.775752 66.000000
27.825889 64.000000
27.876026 9.000000
27.926162 36.000000
27.976299 38.000000
28.026436 43.000000
28.076572 45.000000
28.126709 45.000000
28.176846 7.000000
28.226983 51.000000
28.277119 89.000000
28.327256 66.000000
28.377393 27.000000
28.427530 35.000000
28.477666 70.000000
28.527803 75.000000
28.577940 66.000000
28.628077 13.000000
28.678213 36.000000
28.728350 50.000000
28.778487 51.000000
28.828624 82.000000
28.878760 80.000000
28.928897 79.000000
28.979034 39.000000
29.029170 81.000000
29.079307 77.000000
29.129444 68.000000
29.179581 107.000000
29.229717 29.000000
29.279854 25.000000
29.329991 70.000000
29.380128 84.000000
29.430264 56.000000
29.480401 59.000000
29.530538 61.000000
29.580675 61.000000
29.630811 51.000000
29.680948 51.000000
29.731085 70.000000
29.781222 29.000000
29.831358 23.000000
29.881495 62.000000
29.931632 63.000000
29.981768 58.000000
30.031905 43.000000
30.082042 41.000000
30.132179 39.000000
30.182315 28.000000
30.232452 34.000000
30.282589 37.000000
30.332726 30.000000
30.382862 4.000000
30.432999 13.000000
30.483136 81.000000
30.533273 37.000000
30.583409 25.000000
30.633546 9.000000
30.683683 72.000000
30.733820 76.000000
30.783956 53.000000
30.834093 53.000000
30.884230 58.000000
30.934366 58.000000
30.984503 48.000000
31.034640 70.000000
31.084777 75.000000
31.134913 58.000000
31.185050 37.000000
31.235187 87.000000
31.285324 63.000000
31.335460 63.000000
31.385597 62.000000
31.435734 53.000000
31.485871 64.000000
31.536007 59.000000
31.586144 81.000000
31.636281 81.000000
31.686418 64.000000
31.736554 49.000000
31.786691 50.000000
31.836828 56.000000
31.886964 48.000000
31.937101 55.000000
31.987238 33.000000
32.037375 72.000000
32.087511 43.000000
32.137648 54.000000
32.187785 57.000000
32.237922 53.000000
32.288058 29.000000
32.338195 38.000000
32.388332 66.000000
32.438469 67.000000
32.488605 46.000000
32.538742 51.000000
32.588879 52.000000
32.639015 68.000000
32.689152 96.000000
32.739289 72.000000
32.789426 23.000000
32.839562 10.000000
32.889699 34.000000
32.939836 42.000000
32.989973 44.000000
33.040109 47.000000
33.090246 20.000000
33.140383 38.000000
33.190520 81.000000
33.240656 65.000000
33.290793 68.000000
33.340930 71.000000
33.391067 87.000000
33.441203 88.000000
33.491340 91.000000
33.541477 80.000000
33.591613 48.000000
33.641750 37.000000
33.691887 45.000000
33.742024 51.000000
33.792160 51.000000
33.842297 52.000000
33.892434 61.000000
33.942571 28.000000
33.992707 36.000000
34.042844 70.000000
34.092981 72.000000
34.143118 72.000000
34.193254 55.000000
34.243391 36.000000
34.293528 30.000000
34.343665 53.000000
34.393801 54.000000
34.443938 56.000000
34.494075 26.000000
34.544211 69.000000
34.594348 104.000000
34.644485 108.000000
34.694622 45.000000
34.744758 10.000000
34.794895 80.000000
34.845032 84.000000
34.895169 57.000000
34.945305 35.000000
34.995442 51.000000
35.045579 46.000000
35.095716 61.000000
35.145852 63.000000
35.195989 88.000000
35.246126 67.000000
35.296263 43.000000
35.346399 58.000000
35.396536 86.000000
35.446673 52.000000
35.496809 45.000000
35.546946 29.000000
35.597083 25.000000
35.647220 52.000000
35.697356 78.000000
35.747493 121.000000
35.797630 180.000000
35.847767 194.000000
35.897903 883.000000
35.948040 982.000000
35.998177 556.000000
36.048314 107.000000
36.098450 47.000000
36.148587 57.000000
36.198724 79.000000
36.248861 35.000000
36.298997 4.000000
36.349134 31.000000
36.399271 27.000000
36.449407 70.000000
36.499544 85.000000
36.549681 88.000000
36.599818 72.000000
36.649954 54.000000
36.700091 78.000000
36.750228 80.000000
36.800365 52.000000
36.850501 49.000000
36.900638 32.000000
36.950775 58.000000
37.000912 90.000000
37.051048 96.000000
37.101185 55.000000
37.151322 52.000000
37.201459 74.000000
37.251595 107.000000
37.301732 108.000000
37.351869 54.000000
37.402005 14.000000
37.452142 90.000000
37.502279 67.000000
37.552416 78.000000
37.602552 64.000000
37.652689 76.000000
37.702826 64.000000
37.752963 46.000000
37.803099 81.000000
37.853236 42.000000
37.903373 47.000000
37.953510 58.000000
38.003646 81.000000
38.053783 66.000000
38.103920 49.000000
38.154057 73.000000
38.204193 40.000000
38.254330 53.000000
38.304467 36.000000
38.354603 50.000000
38.404740 56.000000
38.454877 88.000000
38.505014 90.000000
38.555150 54.000000
38.605287 59.000000
38.655424 67.000000
38.705561 55.000000
38.755697 93.000000
38.805834 75.000000
38.855971 62.000000
38.906108 58.000000
38.956244 73.000000
39.006381 76.000000
39.056518 23.000000
39.106655 61.000000
39.156791 47.000000
39.206928 53.000000
39.257065 51.000000
39.307201 45.000000
39.357338 48.000000
39.407475 10.000000
39.457612 47.000000
39.507748 53.000000
39.557885 37.000000
39.608022 64.000000
39.658159 67.000000
39.708295 47.000000
39.758432 50.000000
39.808569 55.000000
39.858706 75.000000
39.908842 70.000000
39.958979 45.000000
40.009116 44.000000
40.059253 45.000000
40.109389 45.000000
40.159526 46.000000
40.209663 57.000000
40.259799 52.000000
40.309936 63.000000
40.360073 71.000000
40.410210 31.000000
40.460346 13.000000
40.510483 22.000000
40.560620 45.000000
40.610757 77.000000
40.660893 31.000000
40.711030 49.000000
40.761167 91.000000
40.811304 28.000000
40.861440 49.000000
40.911577 37.000000
40.961714 76.000000
41.011851 70.000000
41.061987 29.000000
41.112124 46.000000
41.162261 39.000000
41.212397 39.000000
41.262534 91.000000
41.312671 48.000000
41.362808 24.000000
41.412944 42.000000
41.463081 27.000000
41.513218 60.000000
41.563355 52.000000
41.613491 36.000000
41.663628 39.000000
41.713765 83.000000
41.763902 68.000000
41.814038 44.000000
41.864175 116.000000
41.914312 25.000000
41.964448 79.000000
42.014585 44.000000
42.064722 45.000000
42.114859 51.000000
42.164995 23.000000
42.215132 44.000000
42.265269 47.000000
42.315406 49.000000
42.365542 42.000000
42.415679 13.000000
42.465816 37.000000
42.515953 50.000000
42.566089 27.000000
42.616226 31.000000
42.666363 37.000000
42.716500 11.000000
42.766636 48.000000
42.816773 51.000000
42.866910 42.000000
42.917046 37.000000
42.967183 19.000000
43.017320 81.000000
43.067457 64.000000
43.117593 61.000000
43.167730 61.000000
43.217867 63.000000
43.268004 38.000000
43.318140 55.000000
43.368277 25.000000
43.418414 59.000000
43.468551 43.000000
43.518687 24.000000
43.568824 60.000000
43.618961 24.000000
43.669098 44.000000
43.719234 73.000000
43.769371 75.000000
43.819508 28.000000
43.869644 44.000000
43.919781 45.000000
43.969918 93.000000
44.020055 93.000000
44.070191 55.000000
44.120328 57.000000
44.170465 33.000000
44.220602 37.000000
44.270738 53.000000
44.320875 67.000000
44.371012 79.000000
44.421149 80.000000
44.471285 33.000000
44.521422 41.000000
44.571559 42.000000
44.621696 33.000000
44.671832 38.000000
44.721969 99.000000
44.772106 84.000000
44.822242 70.000000
44.872379 75.000000
44.922516 67.000000
44.972653 68.000000
45.022789 106.000000
45.072926 92.000000
45.123063 71.000000
45.173200 40.000000
45.223336 68.000000
45.273473 126.000000
45.323610 83.000000
45.373747 69.000000
45.423883 71.000000
45.474020 54.000000
45.524157 37.000000
45.574294 49.000000
45.624430 63.000000
45.674567 66.000000
45.724704 23.000000
45.774840 75.000000
45.824977 80.000000
45.875114 67.000000
45.925251 1.000000
45.975387 30.000000
46.025524 0.000000
46.075661 23.000000
46.125798 47.000000
46.175934 54.000000
46.226071 85.000000
46.276208 49.000000
46.326345 66.000000
46.376481 76.000000
46.426618 92.000000
46.476755 94.000000
46.526892 77.000000
46.577028 43.000000
46.627165 68.000000
46.677302 69.000000
46.727438 34.000000
46.777575 58.000000
46.827712 38.000000
46.877849 39.000000
46.927985 68.000000
46.978122 100.000000
47.028259 56.000000
47.078396 78.000000
47.128532 74.000000
47.178669 69.000000
47.228806 38.000000
47.278943 64.000000
47.329079 40.000000
47.379216 57.000000
47.429353 71.000000
47.479490 75.000000
47.529626 67.000000
47.579763 78.000000
47.629900 40.000000
47.680036 37.000000
47.730173 55.000000
47.780310 33.000000
47.830447 79.000000
47.880583 82.000000
47.930720 21.000000
47.980857 57.000000
48.030994 64.000000
48.081130 78.000000
48.131267 75.000000
48.181404 66.000000
48.231541 73.000000
48.281677 75.000000
48.331814 54.000000
48.381951 62.000000
48.432088 56.000000
48.482224 62.000000
48.532361 62.000000
48.582498 88.000000
48.632634 68.000000
48.682771 60.000000
48.732908 48.000000
48.783045 49.000000
48.833181 64.000000
48.883318 61.000000
48.933455 67.000000
48.983592 71.000000
49.033728 60.000000
49.083865 61.000000
49.134002 34.000000
49.184139 62.000000
49.234275 70.000000
49.284412 37.000000
49.334549 79.000000
49.384686 85.000000
49.434822 72.000000
49.484959 90.000000
49.535096 31.000000
49.585232 5.000000
49.635369 34.000000
49.685506 16.000000
49.735643 39.000000
49.785779 73.000000
49.835916 84.000000
49.886053 85.000000
49.936190 100.000000
49.986326 50.000000
50.036463 64.000000
50.086600 51.000000
50.136737 17.000000
50.186873 50.000000
50.237010 43.000000
50.287147 55.000000
50.337284 39.000000
50.387420 35.000000
50.437557 84.000000
50.487694 48.000000
50.537830 55.000000
50.587967 42.000000
50.638104 90.000000
50.688241 41.000000
50.738377 64.000000
50.788514 70.000000
50.838651 36.000000
50.888788 69.000000
50.938924 85.000000
50.989061 86.000000
51.039198 45.000000
51.089335 56.000000
51.139471 64.000000
51.189608 97.000000
51.239745 74.000000
51.289881 48.000000
51.340018 30.000000
51.390155 69.000000
51.440292 55.000000
51.490428 34.000000
51.540565 72.000000
51.590702 78.000000
51.640839 56.000000
51.690975 31.000000
51.741112 51.000000
51.791249 41.000000
51.841386 51.000000
51.891522 53.000000
51.941659 71.000000
51.991796 74.000000
52.041933 44.000000
52.092069 76.000000
52.142206 33.000000
52.192343 46.000000
52.242479 73.000000
52.292616 64.000000
52.342753 69.000000
52.392890 116.000000
52.443026 67.000000
52.493163 76.000000
52.543300 57.000000
52.593437 49.000000
52.643573 58.000000
52.693710 61.000000
52.743847 11.000000
52.793984 66.000000
52.844120 78.000000
52.894257 24.000000
52.944394 63.000000
52.994531 25.000000
53.044667 44.000000
53.094804 64.000000
53.144941 56.000000
53.195077 57.000000
53.245214 41.000000
53.295351 43.000000
53.345488 57.000000
53.395624 64.000000
53.445761 53.000000
53.495898 40.000000
53.546035 90.000000
53.596171 49.000000
53.646308 55.000000
53.696445 32.000000
53.746582 71.000000
53.796718 65.000000
53.846855 33.000000
53.896992 67.000000
53.947129 30.000000
53.997265 51.000000
54.047402 44.000000
54.097539 40.000000
54.147675 40.000000
54.197812 57.000000
54.247949 39.000000
54.298086 38.000000
54.348222 66.000000
54.398359 46.000000
54.448496 40.000000
54.498633 9.000000
54.548769 60.000000
54.598906 58.000000
54.649043 62.000000
54.699180 54.000000
54.749316 76.000000
54.799453 12.000000
54.849590 51.000000
54.899727 62.000000
54.949863 70.000000
55.000000 52.000000
55.050137 68.000000
55.100273 69.000000
55.150410 74.000000
55.200547 76.000000
55.250684 53.000000
55.300820 60.000000
55.350957 65.000000
55.401094 66.000000
55.451231 52.000000
55.501367 43.000000
55.551504 56.000000
55.601641 25.000000
55.651778 50.000000
55.701914 70.000000
55.752051 39.000000
55.802188 31.000000
55.852325 20.000000
55.902461 27.000000
55.952598 66.000000
56.002735 53.000000
56.052871 86.000000
56.103008 98.000000
56.153145 28.000000
56.203282 53.000000
56.253418 38.000000
56.303555 42.000000
56.353692 63.000000
56.403829 62.000000
56.453965 43.000000
56.504102 78.000000
56.554239 54.000000
56.604376 17.000000
56.654512 55.000000
56.704649 11.000000
56.754786 56.000000
56.804923 93.000000
56.855059 96.000000
56.905196 49.000000
56.955333 55.000000
57.005469 69.000000
57.055606 70.000000
57.105743 80.000000
57.155880 74.000000
57.206016 56.000000
57.256153 39.000000
57.306290 72.000000
57.356427 52.000000
57.406563 72.000000
57.456700 48.000000
57.506837 55.000000
57.556974 5.000000
57.607110 55.000000
57.657247 48.000000
57.707384 62.000000
57.757521 76.000000
57.807657 57.000000
57.857794 79.000000
57.907931 64.000000
57.958067 69.000000
58.008204 60.000000
58.058341 50.000000
58.108478 39.000000
58.158614 70.000000
58.208751 59.000000
58.258888 63.000000
58.309025 35.000000
58.359161 24.000000
58.409298 25.000000
58.459435 55.000000
58.509572 52.000000
58.559708 28.000000
58.609845 48.000000
58.659982 40.000000
58.710119 61.000000
58.760255 97.000000
58.810392 55.000000
58.860529 37.000000
58.910665 42.000000
58.960802 65.000000
59.010939 62.000000
59.061076 52.000000
59.111212 79.000000
59.161349 99.000000
59.211486 94.000000
59.261623 88.000000
59.311759 44.000000
59.361896 74.000000
59.412033 75.000000
59.462170 19.000000
59.512306 37.000000
59.562443 38.000000
59.612580 55.000000
59.662716 56.000000
59.712853 65.000000
59.762990 66.000000
59.813127 45.000000
59.863263 67.000000
59.913400 67.000000
59.963537 82.000000
60.013674 67.000000
60.063810 79.000000
60.113947 43.000000
60.164084 49.000000
60.214221 90.000000
60.264357 78.000000
60.314494 80.000000
60.364631 51.000000
60.414768 82.000000
60.464904 57.000000
60.515041 73.000000
60.565178 49.000000
60.615314 49.000000
60.665451 50.000000
60.715588 77.000000
60.765725 33.000000
60.815861 39.000000
60.865998 40.000000
60.916135 91.000000
60.966272 77.000000
61.016408 82.000000
61.066545 51.000000
61.116682 10.000000
61.166819 12.000000
61.216955 70.000000
61.267092 51.000000
61.317229 60.000000
61.367366 44.000000
61.417502 64.000000
61.467639 82.000000
61.517776 41.000000
61.567912 65.000000
61.618049 94.000000
61.668186 72.000000
61.718323 79.000000
61.768459 53.000000
61.818596 41.000000
61.868733 51.000000
61.918870 47.000000
61.969006 42.000000
62.019143 45.000000
62.069280 47.000000
62.119417 50.000000
62.169553 78.000000
62.219690 72.000000
62.269827 66.000000
62.319964 67.000000
62.370100 69.000000
62.420237 45.000000
62.470374 37.000000
62.520510 52.000000
62.570647 50.000000
62.620784 88.000000
62.670921 54.000000
62.721057 37.000000
62.771194 36.000000
62.821331 66.000000
62.871468 42.000000
62.921604 100.000000
62.971741 112.000000
63.021878 25.000000
63.072015 80.000000
63.122151 82.000000
63.172288 71.000000
63.222425 58.000000
63.272562 19.000000
63.322698 13.000000
63.372835 19.000000
63.422972 50.000000
63.473108 22.000000
63.523245 55.000000
63.573382 62.000000
63.623519 73.000000
63.673655 37.000000
63.723792 57.000000
63.773929 63.000000
63.824066 39.000000
63.874202 51.000000
63.924339 53.000000
63.974476 35.000000
64.024613 70.000000
64.074749 37.000000
64.124886 28.000000
64.175023 73.000000
64.225160 34.000000
64.275296 43.000000
64.325433 44.000000
64.375570 50.000000
64.425706 65.000000
64.475843 66.000000
64.525980 70.000000
64.576117 43.000000
64.626253 60.000000
64.676390 55.000000
64.726527 86.000000
64.776664 87.000000
64.826800 48.000000
64.876937 52.000000
64.927074 56.000000
64.977211 60.000000
65.027347 73.000000
65.077484 63.000000
65.127621 67.000000
65.177758 68.000000
65.227894 67.000000
65.278031 69.000000
65.328168 68.000000
65.378304 72.000000
65.428441 32.000000
65.478578 36.000000
65.528715 67.000000
65.578851 64.000000
65.628988 37.000000
65.679125 38.000000
65.729262 87.000000
65.779398 39.000000
65.829535 35.000000
65.879672 55.000000
65.929809 34.000000
65.979945 44.000000
66.030082 53.000000
66.080219 82.000000
66.130356 75.000000
66.180492 83.000000
66.230629 19.000000
66.280766 38.000000
66.330902 43.000000
66.381039 43.000000
66.431176 45.000000
66.481313 45.000000
66.531449 51.000000
66.581586 77.000000
66.631723 79.000000
66.681860 72.000000
66.731996 101.000000
66.782133 102.000000
66.832270 71.000000
66.882407 55.000000
66.932543 83.000000
66.982680 86.000000
67.032817 56.000000
67.082954 101.000000
67.133090 95.000000
67.183227 88.000000
67.233364 54.000000
67.283500 48.000000
67.333637 62.000000
67.383774 43.000000
67.433911 49.000000
67.484047 54.000000
67.534184 80.000000
67.584321 65.000000
67.634458 45.000000
67.684594 17.000000
67.734731 84.000000
67.784868 76.000000
67.835005 49.000000
67.885141 35.000000
67.935278 45.000000
67.985415 49.000000
68.035552 77.000000
68.085688 90.000000
68.135825 72.000000
68.185962 100.000000
68.236098 82.000000
68.286235 83.000000
68.336372 89.000000
68.386509 40.000000
68.436645 50.000000
68.486782 97.000000
68.536919 34.000000
68.587056 58.000000
68.637192 85.000000
68.687329 90.000000
68.737466 29.000000
68.787603 0.000000
68.837739 70.000000
68.887876 54.000000
68.938013 55.000000
68.988149 90.000000
69.038286 91.000000
69.088423 10.000000
69.138560 117.000000
69.188696 85.000000
69.238833 93.000000
69.288970 100.000000
69.339107 65.000000
69.389243 73.000000
69.439380 54.000000
69.489517 78.000000
69.539654 46.000000
69.589790 49.000000
69.639927 54.000000
69.690064 70.000000
69.740201 73.000000
69.790337 62.000000
69.840474 98.000000
69.890611 86.000000
69.940747 127.000000
69.990884 109.000000
70.041021 76.000000
70.091158 33.000000
70.141294 16.000000
70.191431 25.000000
70.241568 48.000000
70.291705 54.000000
70.341841 52.000000
70.391978 52.000000
70.442115 0.000000
70.492252 44.000000
70.542388 0.000000
70.592525 64.000000
70.642662 67.000000
70.692799 83.000000
70.742935 56.000000
70.793072 62.000000
70.843209 65.000000
70.893345 67.000000
70.943482 43.000000
70.993619 32.000000
71.043756 54.000000
71.093892 97.000000
71.144029 100.000000
71.194166 54.000000
71.244303 47.000000
71.294439 48.000000
71.344576 64.000000
71.394713 111.000000
71.444850 113.000000
71.494986 60.000000
71.545123 63.000000
71.595260 68.000000
71.645397 21.000000
71.695533 69.000000
71.745670 76.000000
71.795807 48.000000
71.845943 64.000000
71.896080 108.000000
71.946217 80.000000
71.996354 43.000000
72.046490 61.000000
72.096627 42.000000
72.146764 50.000000
72.196901 2.000000
72.247037 72.000000
72.297174 27.000000
72.347311 28.000000
72.397448 29.000000
72.447584 54.000000
72.497721 89.000000
72.547858 90.000000
72.597995 78.000000
72.648131 13.000000
72.698268 69.000000
72.748405 64.000000
72.798541 52.000000
72.848678 68.000000
72.898815 74.000000
72.948952 74.000000
72.999088 108.000000
73.049225 65.000000
73.099362 66.000000
73.149499 40.000000
73.199635 6.000000
73.249772 33.000000
73.299909 49.000000
73.350046 53.000000
73.400182 54.000000
73.450319 36.000000
73.500456 79.000000
73.550593 81.000000
73.600729 70.000000
73.650866 40.000000
73.701003 40.000000
73.751139 48.000000
73.801276 49.000000
73.851413 106.000000
73.901550 108.000000
73.951686 40.000000
74.001823 68.000000
74.051960 70.000000
74.102097 112.000000
74.152233 117.000000
74.202370 44.000000
74.252507 36.000000
74.302644 25.000000
74.352780 39.000000
74.402917 75.000000
74.453054 64.000000
74.503191 39.000000
74.553327 42.000000
74.603464 42.000000
74.653601 70.000000
74.703737 78.000000
74.753874 64.000000
74.804011 77.000000
74.854148 64.000000
74.904284 49.000000
74.954421 36.000000
75.004558 72.000000
75.054695 31.000000
75.104831 40.000000
75.154968 44.000000
75.205105 51.000000
75.255242 58.000000
75.305378 61.000000
75.355515 66.000000
75.405652 24.000000
75.455789 32.000000
75.505925 55.000000
75.556062 63.000000
75.606199 87.000000
75.656335 56.000000
75.706472 66.000000
75.756609 85.000000
75.806746 85.000000
75.856882 68.000000
75.907019 68.000000
75.957156 70.000000
76.007293 82.000000
76.057429 107.000000
76.107566 91.000000
76.157703 82.000000
76.207840 93.000000
76.257976 94.000000
76.308113 65.000000
76.358250 69.000000
76.408387 67.000000
76.458523 96.000000
76.508660 89.000000
76.558797 155.000000
76.608933 519.000000
76.659070 769.000000
76.709207 291.000000
76.759344 60.000000
76.809480 109.000000
76.859617 79.000000
76.909754 109.000000
76.959891 186.000000
77.010027 161.000000
77.060164 481.000000
77.110301 703.000000
77.160438 228.000000
77.210574 101.000000
77.260711 87.000000
77.310848 90.000000
77.360985 139.000000
77.411121 157.000000
77.461258 668.000000
77.511395 689.000000
77.561531 160.000000
77.611668 133.000000
77.661805 112.000000
77.711942 80.000000
77.762078 57.000000
77.812215 69.000000
77.862352 51.000000
77.912489 57.000000
77.962625 58.000000
78.012762 57.000000
78.062899 59.000000
78.113036 40.000000
78.163172 51.000000
78.213309 54.000000
78.263446 43.000000
78.313582 54.000000
78.363719 33.000000
78.413856 8.000000
78.463993 53.000000
78.514129 67.000000
78.564266 72.000000
78.614403 50.000000
78.664540 67.000000
78.714676 81.000000
78.764813 37.000000
78.814950 64.000000
78.865087 68.000000
78.915223 69.000000
78.965360 58.000000
79.015497 62.000000
79.065634 56.000000
79.115770 63.000000
79.165907 66.000000
79.216044 55.000000
79.266180 83.000000
79.316317 83.000000
79.366454 63.000000
79.416591 50.000000
79.466727 54.000000
79.516864 25.000000
79.567001 46.000000
79.617138 57.000000
79.667274 45.000000
79.717411 95.000000
79.767548 69.000000
79.817685 67.000000
79.867821 72.000000
79.917958 64.000000
79.968095 52.000000
80.018232 62.000000
80.068368 37.000000
80.118505 79.000000
80.168642 83.000000
80.218778 36.000000
80.268915 53.000000
80.319052 58.000000
80.369189 58.000000
80.419325 54.000000
80.469462 75.000000
80.519599 74.000000
80.569736 77.000000
80.619872 19.000000
80.670009 36.000000
80.720146 84.000000
80.770283 62.000000
80.820419 53.000000
80.870556 67.000000
80.920693 68.000000
80.970830 51.000000
81.020966 34.000000
81.071103 73.000000
81.121240 12.000000
81.171376 18.000000
81.221513 45.000000
81.271650 93.000000
81.321787 46.000000
81.371923 37.000000
81.422060 30.000000
81.472197 66.000000
81.522334 55.000000
81.572470 52.000000
81.622607 70.000000
81.672744 48.000000
81.722881 44.000000
81.773017 81.000000
81.823154 82.000000
81.873291 70.000000
81.923428 70.000000
81.973564 38.000000
82.023701 98.000000
82.073838 76.000000
82.123974 54.000000
82.174111 103.000000
82.224248 106.000000
82.274385 52.000000
82.324521 64.000000
82.374658 55.000000
82.424795 69.000000
82.474932 54.000000
82.525068 47.000000
82.575205 71.000000
82.625342 64.000000
82.675479 17.000000
82.725615 66.000000
82.775752 55.000000
82.825889 63.000000
82.876026 51.000000
82.926162 61.000000
82.976299 62.000000
83.026436 81.000000
83.076572 86.000000
83.126709 87.000000
83.176846 68.000000
83.226983 73.000000
83.277119 61.000000
83.327256 46.000000
83.377393 40.000000
83.427530 59.000000
83.477666 50.000000
83.527803 66.000000
83.577940 46.000000
83.628077 62.000000
83.678213 63.000000
83.728350 54.000000
83.778487 54.000000
83.828624 72.000000
83.878760 42.000000
83.928897 90.000000
83.979034 64.000000
84.029170 66.000000
84.079307 65.000000
84.129444 81.000000
84.179581 60.000000
84.229717 47.000000
84.279854 52.000000
84.329991 48.000000
84.380128 73.000000
84.430264 56.000000
84.480401 55.000000
84.530538 106.000000
84.580675 94.000000
84.630811 70.000000
84.680948 53.000000
84.731085 43.000000
84.781222 51.000000
84.831358 76.000000
84.881495 48.000000
84.931632 80.000000
84.981768 69.000000
85.031905 96.000000
85.082042 79.000000
85.132179 65.000000
85.182315 61.000000
85.232452 64.000000
85.282589 44.000000
85.332726 65.000000
85.382862 68.000000
85.432999 75.000000
85.483136 86.000000
85.533273 72.000000
85.583409 57.000000
85.633546 62.000000
85.683683 67.000000
85.733820 95.000000
85.783956 70.000000
85.834093 64.000000
85.884230 68.000000
85.934366 85.000000
85.984503 47.000000
86.034640 75.000000
86.084777 31.000000
86.134913 79.000000
86.185050 31.000000
86.235187 65.000000
86.285324 32.000000
86.335460 65.000000
86.385597 67.000000
86.435734 67.000000
86.485871 86.000000
86.536007 87.000000
86.586144 45.000000
86.636281 37.000000
86.686418 45.000000
86.736554 88.000000
86.786691 48.000000
86.836828 36.000000
86.886964 65.000000
86.937101 26.000000
86.987238 36.000000
87.037375 65.000000
87.087511 68.000000
87.137648 66.000000
87.187785 40.000000
87.237922 75.000000
87.288058 79.000000
87.338195 80.000000
87.388332 52.000000
87.438469 66.000000
87.488605 83.000000
87.538742 84.000000
87.588879 69.000000
87.639015 102.000000
87.689152 73.000000
87.739289 40.000000
87.789426 54.000000
87.839562 99.000000
87.889699 96.000000
87.939836 80.000000
87.989973 92.000000
88.040109 54.000000
88.090246 54.000000
88.140383 88.000000
88.190520 72.000000
88.240656 64.000000
88.290793 59.000000
88.340930 74.000000
88.391067 87.000000
88.441203 48.000000
88.491340 30.000000
88.541477 16.000000
88.591613 38.000000
88.641750 71.000000
88.691887 73.000000
88.742024 84.000000
88.792160 78.000000
88.842297 86.000000
88.892434 87.000000
88.942571 58.000000
88.992707 59.000000
89.042844 82.000000
89.092981 53.000000
89.143118 54.000000
89.193254 82.000000
89.243391 85.000000
89.293528 35.000000
89.343665 63.000000
89.393801 56.000000
89.443938 49.000000
89.494075 42.000000
89.544211 82.000000
89.594348 44.000000
89.644485 47.000000
89.694622 73.000000
89.744758 104.000000
89.794895 58.000000
89.845032 58.000000
89.895169 57.000000
89.945305 39.000000
89.995442 90.000000
90.045579 38.000000
90.095716 103.000000
90.145852 104.000000
90.195989 12.000000
90.246126 49.000000
90.296263 72.000000
90.346399 49.000000
90.396536 68.000000
90.446673 80.000000
90.496809 63.000000
90.546946 85.000000
90.597083 42.000000
90.647220 55.000000
90.697356 91.000000
90.747493 74.000000
90.797630 93.000000
90.847767 78.000000
90.897903 63.000000
90.948040 76.000000
90.998177 65.000000
91.048314 59.000000
91.098450 62.000000
91.148587 66.000000
91.198724 55.000000
91.248861 66.000000
91.298997 46.000000
91.349134 75.000000
91.399271 78.000000
91.449407 57.000000
91.499544 38.000000
91.549681 52.000000
91.599818 38.000000
91.649954 27.000000
91.700091 53.000000
91.750228 75.000000
91.800365 73.000000
91.850501 68.000000
91.900638 93.000000
91.950775 75.000000
92.000912 77.000000
92.051048 43.000000
92.101185 57.000000
92.151322 47.000000
92.201459 93.000000
92.251595 47.000000
92.301732 94.000000
92.351869 44.000000
92.402005 18.000000
92.452142 60.000000
92.502279 60.000000
92.552416 39.000000
92.602552 61.000000
92.652689 62.000000
92.702826 18.000000
92.752963 63.000000
92.803099 63.000000
92.853236 42.000000
92.903373 61.000000
92.953510 68.000000
93.003646 71.000000
93.053783 60.000000
93.103920 90.000000
93.154057 56.000000
93.204193 52.000000
93.254330 60.000000
93.304467 61.000000
93.354603 60.000000
93.404740 63.000000
93.454877 55.000000
93.505014 52.000000
93.555150 52.000000
93.605287 76.000000
93.655424 77.000000
93.705561 43.000000
93.755697 51.000000
93.805834 54.000000
93.855971 60.000000
93.906108 66.000000
93.956244 63.000000
94.006381 35.000000
94.056518 0.000000
94.106655 53.000000
94.156791 55.000000
94.206928 55.000000
94.257065 98.000000
94.307201 88.000000
94.357338 78.000000
94.407475 67.000000
94.457612 78.000000
94.507748 61.000000
94.557885 56.000000
94.608022 9.000000
94.658159 54.000000
94.708295 88.000000
94.758432 75.000000
94.808569 77.000000
94.858706 49.000000
94.908842 72.000000
94.958979 74.000000
95.009116 31.000000
95.059253 61.000000
95.109389 63.000000
95.159526 4.000000
95.209663 81.000000
95.259799 63.000000
95.309936 33.000000
95.360073 54.000000
95.410210 65.000000
95.460346 67.000000
95.510483 69.000000
95.560620 50.000000
95.610757 48.000000
95.660893 30.000000
95.711030 18.000000
95.761167 45.000000
95.811304 67.000000
95.861440 60.000000
95.911577 93.000000
95.961714 77.000000
96.011851 79.000000
96.061987 99.000000
96.112124 102.000000
96.162261 81.000000
96.212397 81.000000
96.262534 66.000000
96.312671 50.000000
96.362808 58.000000
96.412944 32.000000
96.463081 34.000000
96.513218 0.000000
96.563355 50.000000
96.613491 64.000000
96.663628 75.000000
96.713765 64.000000
96.763902 56.000000
96.814038 53.000000
96.864175 69.000000
96.914312 70.000000
96.964448 102.000000
97.014585 92.000000
97.064722 86.000000
97.114859 79.000000
97.164995 36.000000
97.215132 68.000000
97.265269 42.000000
97.315406 60.000000
97.365542 56.000000
97.415679 56.000000
97.465816 64.000000
97.515953 65.000000
97.566089 64.000000
97.616226 68.000000
97.666363 68.000000
97.716500 59.000000
97.766636 64.000000
97.816773 91.000000
97.866910 81.000000
97.917046 69.000000
97.967183 72.000000
98.017320 84.000000
98.067457 106.000000
98.117593 51.000000
98.167730 57.000000
98.217867 57.000000
98.268004 38.000000
98.318140 62.000000
98.368277 67.000000
98.418414 69.000000
98.468551 41.000000
98.518687 56.000000
98.568824 80.000000
98.618961 85.000000
98.669098 90.000000
98.719234 32.000000
98.769371 62.000000
98.819508 69.000000
98.869644 110.000000
98.919781 75.000000
98.969918 53.000000
99.020055 25.000000
99.070191 41.000000
99.120328 82.000000
99.170465 85.000000
99.220602 51.000000
99.270738 42.000000
99.320875 52.000000
99.371012 72.000000
99.421149 56.000000
99.471285 76.000000
99.521422 79.000000
99.571559 57.000000
99.621696 67.000000
99.671832 67.000000
99.721969 64.000000
99.772106 67.000000
99.822242 59.000000
99.872379 78.000000
99.922516 96.000000
99.972653 97.000000
100.022789 75.000000
100.072926 48.000000
100.123063 62.000000
100.173200 78.000000
100.223336 101.000000
100.273473 103.000000
100.323610 36.000000
100.373747 54.000000
100.423883 82.000000
100.474020 98.000000
100.524157 66.000000
100.574294 63.000000
100.624430 42.000000
100.674567 75.000000
100.724704 66.000000
100.774840 69.000000
100.824977 99.000000
100.875114 88.000000
100.925251 66.000000
100.975387 61.000000
101.025524 110.000000
101.075661 111.000000
101.125798 67.000000
101.175934 12.000000
101.226071 94.000000
101.276208 93.000000
101.326345 43.000000
101.376481 69.000000
101.426618 74.000000
101.476755 56.000000
101.526892 56.000000
101.577028 51.000000
101.627165 35.000000
101.677302 73.000000
101.727438 79.000000
101.777575 91.000000
101.827712 90.000000
101.877849 85.000000
101.927985 100.000000
101.978122 58.000000
102.028259 49.000000
102.078396 58.000000
102.128532 69.000000
102.178669 77.000000
102.228806 85.000000
102.278943 75.000000
102.329079 70.000000
102.379216 75.000000
102.429353 66.000000
102.479490 65.000000
102.529626 97.000000
102.579763 102.000000
102.629900 115.000000
102.680036 106.000000
102.730173 99.000000
102.780310 103.000000
102.830447 39.000000
102.880583 80.000000
102.930720 84.000000
102.980857 50.000000
103.030994 50.000000
103.081130 24.000000
103.131267 55.000000
103.181404 73.000000
103.231541 76.000000
103.281677 79.000000
103.331814 49.000000
103.381951 40.000000
103.432088 73.000000
103.482224 93.000000
103.532361 50.000000
103.582498 56.000000
103.632634 90.000000
103.682771 78.000000
103.732908 84.000000
103.783045 89.000000
103.833181 52.000000
103.883318 43.000000
103.933455 16.000000
103.983592 36.000000
104.033728 66.000000
104.083865 69.000000
104.134002 73.000000
104.184139 45.000000
104.234275 9.000000
104.284412 72.000000
104.334549 64.000000
104.384686 42.000000
104.434822 67.000000
104.484959 68.000000
104.535096 70.000000
104.585232 63.000000
104.635369 72.000000
104.685506 88.000000
104.735643 59.000000
104.785779 48.000000
104.835916 35.000000
104.886053 67.000000
104.936190 64.000000
104.986326 78.000000
105.036463 67.000000
105.086600 58.000000
105.136737 88.000000
105.186873 93.000000
105.237010 79.000000
105.287147 80.000000
105.337284 53.000000
105.387420 56.000000
105.437557 53.000000
105.487694 65.000000
105.537830 42.000000
105.587967 10.000000
105.638104 61.000000
105.688241 40.000000
105.738377 69.000000
105.788514 69.000000
105.838651 54.000000
105.888788 72.000000
105.938924 54.000000
105.989061 81.000000
106.039198 83.000000
106.089335 84.000000
106.139471 56.000000
106.189608 86.000000
106.239745 75.000000
106.289881 86.000000
106.340018 70.000000
106.390155 39.000000
106.440292 74.000000
106.490428 71.000000
106.540565 55.000000
106.590702 63.000000
106.640839 65.000000
106.690975 79.000000
106.741112 91.000000
106.791249 63.000000
106.841386 99.000000
106.891522 87.000000
106.941659 96.000000
106.991796 97.000000
107.041933 44.000000
107.092069 69.000000
107.142206 97.000000
107.192343 70.000000
107.242479 11.000000
107.292616 79.000000
107.342753 62.000000
107.392890 72.000000
107.443026 76.000000
107.493163 56.000000
107.543300 45.000000
107.593437 75.000000
107.643573 97.000000
107.693710 90.000000
107.743847 69.000000
107.793984 54.000000
107.844120 73.000000
107.894257 75.000000
107.944394 100.000000
107.994531 103.000000
108.044667 33.000000
108.094804 59.000000
108.144941 52.000000
108.195077 73.000000
108.245214 77.000000
108.295351 88.000000
108.345488 65.000000
108.395624 90.000000
108.445761 59.000000
108.495898 81.000000
108.546035 92.000000
108.596171 59.000000
108.646308 70.000000
108.696445 81.000000
108.746582 87.000000
108.796718 88.000000
108.846855 85.000000
108.896992 43.000000
108.947129 64.000000
108.997265 82.000000
109.047402 83.000000
109.097539 85.000000
109.147675 49.000000
109.197812 77.000000
109.247949 87.000000
109.298086 77.000000
109.348222 30.000000
109.398359 77.000000
109.448496 85.000000
109.498633 86.000000
109.548769 51.000000
109.598906 57.000000
109.649043 43.000000
109.699180 32.000000
109.749316 50.000000
109.799453 69.000000
109.849590 99.000000
109.899727 125.000000
109.949863 88.000000
110.000000 85.000000
110.050137 85.000000
110.100273 92.000000
110.150410 99.000000
110.200547 91.000000
110.250684 102.000000
110.300820 103.000000
110.350957 81.000000
110.401094 58.000000
110.451231 116.000000
110.501367 119.000000
110.551504 47.000000
110.601641 112.000000
110.651778 84.000000
110.701914 60.000000
110.752051 61.000000
110.802188 67.000000
110.852325 87.000000
110.902461 60.000000
110.952598 49.000000
111.002735 85.000000
111.052871 56.000000
111.103008 85.000000
111.153145 87.000000
111.203282 68.000000
111.253418 124.000000
111.303555 113.000000
111.353692 52.000000
111.403829 35.000000
111.453965 67.000000
111.504102 62.000000
111.554239 54.000000
111.604376 104.000000
111.654512 93.000000
111.704649 101.000000
111.754786 81.000000
111.804923 100.000000
111.855059 80.000000
111.905196 44.000000
111.955333 88.000000
112.005469 81.000000
112.055606 75.000000
112.105743 45.000000
112.155880 63.000000
112.206016 77.000000
112.256153 43.000000
112.306290 32.000000
112.356427 86.000000
112.406563 65.000000
112.456700 55.000000
112.506837 82.000000
112.556974 84.000000
112.607110 49.000000
112.657247 112.000000
112.707384 79.000000
112.757521 86.000000
112.807657 102.000000
112.857794 90.000000
112.907931 106.000000
112.958067 96.000000
113.008204 84.000000
113.058341 87.000000
113.108478 84.000000
113.158614 48.000000
113.208751 63.000000
113.258888 76.000000
113.309025 77.000000
113.359161 65.000000
113.409298 67.000000
113.459435 71.000000
113.509572 73.000000
113.559708 63.000000
113.609845 76.000000
113.659982 81.000000
113.710119 66.000000
113.760255 32.000000
113.810392 27.000000
113.860529 106.000000
113.910665 109.000000
113.960802 98.000000
114.010939 58.000000
114.061076 41.000000
114.111212 46.000000
114.161349 66.000000
114.211486 61.000000
114.261623 61.000000
114.311759 76.000000
114.361896 56.000000
114.412033 99.000000
114.462170 100.000000
114.512306 75.000000
114.562443 67.000000
114.612580 68.000000
114.662716 49.000000
114.712853 61.000000
114.762990 91.000000
114.813127 129.000000
114.863263 75.000000
114.913400 41.000000
114.963537 66.000000
115.013674 60.000000
115.063810 75.000000
115.113947 67.000000
115.164084 73.000000
115.214221 60.000000
115.264357 54.000000
115.314494 74.000000
115.364631 51.000000
115.414768 75.000000
115.464904 44.000000
115.515041 114.000000
115.565178 90.000000
115.615314 91.000000
115.665451 85.000000
115.715588 48.000000
115.765725 30.000000
115.815861 52.000000
115.865998 73.000000
115.916135 100.000000
115.966272 94.000000
116.016408 47.000000
116.066545 36.000000
116.116682 84.000000
116.166819 96.000000
116.216955 132.000000
116.267092 70.000000
116.317229 35.000000
116.367366 65.000000
116.417502 57.000000
116.467639 85.000000
116.517776 64.000000
116.567912 27.000000
116.618049 68.000000
116.668186 66.000000
116.718323 49.000000
116.768459 88.000000
116.818596 63.000000
116.868733 23.000000
116.918870 75.000000
116.969006 76.000000
117.019143 64.000000
117.069280 78.000000
117.119417 63.000000
117.169553 77.000000
117.219690 72.000000
117.269827 41.000000
117.319964 83.000000
117.370100 67.000000
117.420237 29.000000
117.470374 64.000000
117.520510 69.000000
117.570647 35.000000
117.620784 83.000000
117.670921 67.000000
117.721057 73.000000
117.771194 105.000000
117.821331 92.000000
117.871468 81.000000
117.921604 87.000000
117.971741 101.000000
118.021878 116.000000
118.072015 87.000000
118.122151 120.000000
118.172288 43.000000
118.222425 24.000000
118.272562 54.000000
118.322698 59.000000
118.372835 65.000000
118.422972 46.000000
118.473108 16.000000
118.523245 63.000000
118.573382 84.000000
118.623519 56.000000
118.673655 65.000000
118.723792 60.000000
118.773929 75.000000
118.824066 96.000000
118.874202 79.000000
118.924339 82.000000
118.974476 59.000000
119.024613 57.000000
119.074749 82.000000
119.124886 67.000000
119.175023 72.000000
119.225160 63.000000
119.275296 73.000000
119.325433 47.000000
119.375570 49.000000
119.425706 79.000000
119.475843 76.000000
119.525980 67.000000
119.576117 64.000000
119.626253 91.000000
119.676390 67.000000
119.726527 28.000000
119.776664 106.000000
119.826800 61.000000
119.876937 37.000000
119.927074 87.000000
119.977211 73.000000
120.027347 70.000000
120.077484 86.000000
120.127621 30.000000
120.177758 47.000000
120.227894 49.000000
120.278031 62.000000
120.328168 64.000000
120.378304 103.000000
120.428441 39.000000
120.478578 85.000000
120.528715 89.000000
120.578851 90.000000
120.628988 101.000000
120.679125 92.000000
120.729262 84.000000
120.779398 87.000000
120.829535 45.000000
120.879672 58.000000
120.929809 81.000000
120.979945 69.000000
121.030082 74.000000
121.080219 94.000000
121.130356 46.000000
121.180492 91.000000
121.230629 69.000000
121.280766 46.000000
121.330902 93.000000
121.381039 80.000000
121.431176 50.000000
121.481313 56.000000
121.531449 45.000000
121.581586 38.000000
121.631723 46.000000
121.681860 59.000000
121.731996 67.000000
121.782133 61.000000
121.832270 65.000000
121.882407 70.000000
121.932543 80.000000
121.982680 75.000000
122.032817 48.000000
122.082954 45.000000
122.133090 67.000000
122.183227 89.000000
122.233364 64.000000
122.283500 40.000000
122.333637 15.000000
122.383774 67.000000
122.433911 111.000000
122.484047 115.000000
122.534184 69.000000
122.584321 64.000000
122.634458 62.000000
122.684594 66.000000
122.734731 47.000000
122.784868 48.000000
122.835005 38.000000
122.885141 40.000000
122.935278 64.000000
122.985415 66.000000
123.035552 78.000000
123.085688 87.000000
123.135825 42.000000
123.185962 15.000000
123.236098 54.000000
123.286235 55.000000
123.336372 71.000000
123.386509 84.000000
123.436645 68.000000
123.486782 58.000000
123.536919 60.000000
123.587056 54.000000
123.637192 94.000000
123.687329 38.000000
123.737466 66.000000
123.787603 94.000000
123.837739 67.000000
123.887876 66.000000
123.938013 57.000000
123.988149 41.000000
124.038286 66.000000
124.088423 63.000000
124.138560 60.000000
124.188696 60.000000
124.238833 50.000000
124.288970 72.000000
124.339107 87.000000
124.389243 60.000000
124.439380 51.000000
124.489517 36.000000
124.539654 24.000000
124.589790 69.000000
124.639927 48.000000
124.690064 75.000000
124.740201 68.000000
124.790337 54.000000
124.840474 90.000000
124.890611 92.000000
124.940747 81.000000
124.990884 74.000000
125.041021 73.000000
125.091158 35.000000
125.141294 76.000000
125.191431 78.000000
125.241568 52.000000
125.291705 28.000000
125.341841 35.000000
125.391978 69.000000
125.442115 49.000000
125.492252 85.000000
125.542388 87.000000
125.592525 69.000000
125.642662 52.000000
125.692799 76.000000
125.742935 65.000000
125.793072 81.000000
125.843209 57.000000
125.893345 56.000000
125.943482 73.000000
125.993619 68.000000
126.043756 93.000000
126.093892 91.000000
126.144029 47.000000
126.194166 16.000000
126.244303 56.000000
126.294439 72.000000
126.344576 87.000000
126.394713 64.000000
126.444850 71.000000
126.494986 95.000000
126.545123 73.000000
126.595260 46.000000
126.645397 42.000000
126.695533 88.000000
126.745670 75.000000
126.795807 84.000000
126.845943 64.000000
126.896080 70.000000
126.946217 45.000000
126.996354 22.000000
127.046490 58.000000
127.096627 46.000000
127.146764 64.000000
127.196901 63.000000
127.247037 67.000000
127.297174 57.000000
127.347311 85.000000
127.397448 54.000000
127.447584 31.000000
127.497721 58.000000
127.547858 52.000000
127.597995 54.000000
127.648131 42.000000
127.698268 91.000000
127.748405 71.000000
127.798541 52.000000
127.848678 45.000000
127.898815 57.000000
127.948952 60.000000
127.999088 76.000000
128.049225 91.000000
128.099362 55.000000
128.149499 73.000000
128.199635 75.000000
128.249772 79.000000
128.299909 69.000000
128.350046 83.000000
128.400182 31.000000
128.450319 70.000000
128.500456 67.000000
128.550593 48.000000
128.600729 89.000000
128.650866 105.000000
128.701003 106.000000
128.751139 57.000000
128.801276 68.000000
128.851413 68.000000
128.901550 85.000000
128.951686 82.000000
129.001823 92.000000
129.051960 115.000000
129.102097 117.000000
129.152233 63.000000
129.202370 29.000000
129.252507 57.000000
129.302644 58.000000
129.352780 39.000000
129.402917 115.000000
129.453054 71.000000
129.503191 59.000000
129.553327 44.000000
129.603464 79.000000
129.653601 78.000000
129.703737 67.000000
129.753874 47.000000
129.804011 59.000000
129.854148 100.000000
129.904284 91.000000
129.954421 85.000000
130.004558 55.000000
130.054695 89.000000
130.104831 65.000000
130.154968 44.000000
130.205105 39.000000
130.255242 84.000000
130.305378 80.000000
130.355515 78.000000
130.405652 78.000000
130.455789 68.000000
130.505925 70.000000
130.556062 65.000000
130.606199 65.000000
130.656335 54.000000
130.706472 57.000000
130.756609 41.000000
130.806746 62.000000
130.856882 67.000000
130.907019 78.000000
130.957156 46.000000
131.007293 48.000000
131.057429 57.000000
131.107566 54.000000
131.157703 54.000000
131.207840 69.000000
131.257976 29.000000
131.308113 70.000000
131.358250 79.000000
131.408387 53.000000
131.458523 64.000000
131.508660 76.000000
131.558797 79.000000
131.608933 76.000000
131.659070 86.000000
131.709207 88.000000
131.759344 83.000000
131.809480 44.000000
131.859617 48.000000
131.909754 75.000000
131.959891 65.000000
132.010027 83.000000
132.060164 91.000000
132.110301 70.000000
132.160438 73.000000
132.210574 75.000000
132.260711 102.000000
132.310848 74.000000
132.360985 55.000000
132.411121 33.000000
132.461258 51.000000
132.511395 28.000000
132.561531 53.000000
132.611668 65.000000
132.661805 64.000000
132.711942 76.000000
132.762078 74.000000
132.812215 76.000000
132.862352 72.000000
132.912489 53.000000
132.962625 66.000000
133.012762 52.000000
133.062899 50.000000
133.113036 102.000000
133.163172 97.000000
133.213309 99.000000
133.263446 75.000000
133.313582 72.000000
133.363719 73.000000
133.413856 69.000000
133.463993 51.000000
133.514129 48.000000
133.564266 59.000000
133.614403 49.000000
133.664540 56.000000
133.714676 69.000000
133.764813 64.000000
133.814950 95.000000
133.865087 2.000000
133.915223 50.000000
133.965360 109.000000
134.015497 61.000000
134.065634 56.000000
134.115770 79.000000
134.165907 57.000000
134.216044 34.000000
134.266180 66.000000
134.316317 88.000000
134.366454 48.000000
134.416591 15.000000
134.466727 70.000000
134.516864 103.000000
134.567001 87.000000
134.617138 54.000000
134.667274 76.000000
134.717411 74.000000
134.767548 113.000000
134.817685 87.000000
134.867821 62.000000
134.917958 66.000000
134.968095 64.000000
135.018232 65.000000
135.068368 61.000000
135.118505 65.000000
135.168642 43.000000
135.218778 50.000000
135.268915 100.000000
135.319052 49.000000
135.369189 63.000000
135.419325 81.000000
135.469462 101.000000
135.519599 39.000000
135.569736 45.000000
135.619872 46.000000
135.670009 52.000000
135.720146 55.000000
135.770283 48.000000
135.820419 57.000000
135.870556 68.000000
135.920693 93.000000
135.970830 48.000000
136.020966 52.000000
136.071103 55.000000
136.121240 74.000000
136.171376 55.000000
136.221513 85.000000
136.271650 102.000000
136.321787 63.000000
136.371923 54.000000
136.422060 33.000000
136.472197 85.000000
136.522334 79.000000
136.572470 58.000000
136.622607 24.000000
136.672744 40.000000
136.722881 61.000000
136.773017 62.000000
136.823154 55.000000
136.873291 11.000000
136.923428 53.000000
136.973564 67.000000
137.023701 68.000000
137.073838 79.000000
137.123974 78.000000
137.174111 10.000000
137.224248 11.000000
137.274385 39.000000
137.324521 68.000000
137.374658 76.000000
137.424795 70.000000
137.474932 71.000000
137.525068 82.000000
137.575205 52.000000
137.625342 64.000000
137.675479 56.000000
137.725615 43.000000
137.775752 47.000000
137.825889 58.000000
137.876026 47.000000
137.926162 75.000000
137.976299 63.000000
138.026436 75.000000
138.076572 77.000000
138.126709 78.000000
138.176846 70.000000
138.226983 9.000000
138.277119 3.000000
138.327256 67.000000
138.377393 101.000000
138.427530 55.000000
138.477666 62.000000
138.527803 76.000000
138.577940 77.000000
138.628077 97.000000
138.678213 102.000000
138.728350 103.000000
138.778487 64.000000
138.828624 36.000000
138.878760 49.000000
138.928897 52.000000
138.979034 50.000000
139.029170 51.000000
139.079307 39.000000
139.129444 46.000000
139.179581 48.000000
139.229717 72.000000
139.279854 70.000000
139.329991 75.000000
139.380128 34.000000
139.430264 84.000000
139.480401 61.000000
139.530538 52.000000
139.580675 39.000000
139.630811 1.000000
139.680948 59.000000
139.731085 60.000000
139.781222 49.000000
139.831358 61.000000
139.881495 59.000000
139.931632 34.000000
139.981768 56.000000
140.031905 82.000000
140.082042 36.000000
140.132179 112.000000
140.182315 120.000000
140.232452 121.000000
140.282589 62.000000
140.332726 53.000000
140.382862 91.000000
140.432999 87.000000
140.483136 81.000000
140.533273 82.000000
140.583409 58.000000
140.633546 25.000000
140.683683 78.000000
140.733820 62.000000
140.783956 78.000000
140.834093 74.000000
140.884230 65.000000
140.934366 34.000000
140.984503 37.000000
141.034640 84.000000
141.084777 65.000000
141.134913 67.000000
141.185050 74.000000
141.235187 53.000000
141.285324 8.000000
141.335460 57.000000
141.385597 82.000000
141.435734 72.000000
141.485871 43.000000
141.536007 50.000000
141.586144 82.000000
141.636281 67.000000
141.686418 67.000000
141.736554 39.000000
141.786691 28.000000
141.836828 40.000000
141.886964 42.000000
141.937101 55.000000
141.987238 58.000000
142.037375 54.000000
142.087511 72.000000
142.137648 106.000000
142.187785 89.000000
142.237922 47.000000
142.288058 77.000000
142.338195 109.000000
142.388332 86.000000
142.438469 93.000000
142.488605 70.000000
142.538742 73.000000
142.588879 76.000000
142.639015 39.000000
142.689152 54.000000
142.739289 62.000000
142.789426 46.000000
142.839562 48.000000
142.889699 46.000000
142.939836 34.000000
142.989973 63.000000
143.040109 55.000000
143.090246 51.000000
143.140383 55.000000
143.190520 32.000000
143.240656 54.000000
143.290793 53.000000
143.340930 54.000000
143.391067 38.000000
143.441203 65.000000
143.491340 65.000000
143.541477 66.000000
143.591613 41.000000
143.641750 58.000000
143.691887 78.000000
143.742024 100.000000
143.792160 102.000000
143.842297 70.000000
143.892434 84.000000
143.942571 71.000000
143.992707 33.000000
144.042844 42.000000
144.092981 63.000000
144.143118 70.000000
144.193254 106.000000
144.243391 108.000000
144.293528 47.000000
144.343665 71.000000
144.393801 77.000000
144.443938 71.000000
144.494075 65.000000
144.544211 75.000000
144.594348 72.000000
144.644485 69.000000
144.694622 69.000000
144.744758 86.000000
144.794895 88.000000
144.845032 63.000000
144.895169 60.000000
144.945305 66.000000
144.995442 67.000000
145.045579 85.000000
145.095716 81.000000
145.145852 32.000000
145.195989 56.000000
145.246126 56.000000
145.296263 37.000000
145.346399 37.000000
145.396536 7.000000
145.446673 43.000000
145.496809 97.000000
145.546946 57.000000
145.597083 49.000000
145.647220 50.000000
145.697356 11.000000
145.747493 96.000000
145.797630 87.000000
145.847767 58.000000
145.897903 60.000000
145.948040 64.000000
145.998177 65.000000
146.048314 73.000000
146.098450 64.000000
146.148587 80.000000
146.198724 81.000000
146.248861 50.000000
146.298997 50.000000
146.349134 63.000000
146.399271 70.000000
146.449407 79.000000
146.499544 62.000000
146.549681 84.000000
146.599818 73.000000
146.649954 81.000000
146.700091 28.000000
146.750228 43.000000
146.800365 63.000000
146.850501 76.000000
146.900638 49.000000
146.950775 59.000000
147.000912 50.000000
147.051048 52.000000
147.101185 55.000000
147.151322 56.000000
147.201459 66.000000
147.251595 67.000000
147.301732 28.000000
147.351869 77.000000
147.402005 107.000000
147.452142 65.000000
147.502279 33.000000
147.552416 66.000000
147.602552 65.000000
147.652689 74.000000
147.702826 39.000000
147.752963 60.000000
147.803099 63.000000
147.853236 9.000000
147.903373 44.000000
147.953510 88.000000
148.003646 55.000000
148.053783 40.000000
148.103920 90.000000
148.154057 82.000000
148.204193 81.000000
148.254330 66.000000
148.304467 43.000000
148.354603 83.000000
148.404740 93.000000
148.454877 100.000000
148.505014 89.000000
148.555150 34.000000
148.605287 58.000000
148.655424 93.000000
148.705561 79.000000
148.755697 99.000000
148.805834 79.000000
148.855971 60.000000
148.906108 61.000000
148.956244 48.000000
149.006381 55.000000
149.056518 68.000000
149.106655 88.000000
149.156791 93.000000
149.206928 60.000000
149.257065 18.000000
149.307201 48.000000
149.357338 66.000000
149.407475 67.000000
149.457612 61.000000
149.507748 20.000000
149.557885 54.000000
149.608022 54.000000
149.658159 58.000000
149.708295 61.000000
149.758432 41.000000
149.808569 35.000000
149.858706 37.000000
149.908842 54.000000
149.958979 55.000000
150.009116 14.000000
150.059253 21.000000
150.109389 30.000000
150.159526 34.000000
150.209663 68.000000
150.259799 72.000000
150.309936 69.000000
150.360073 19.000000
150.410210 65.000000
150.460346 72.000000
150.510483 87.000000
150.560620 72.000000
150.610757 42.000000
150.660893 49.000000
150.711030 35.000000
150.761167 33.000000
150.811304 34.000000
150.861440 50.000000
150.911577 43.000000
150.961714 91.000000
151.011851 62.000000
151.061987 56.000000
151.112124 52.000000
151.162261 46.000000
151.212397 59.000000
151.262534 47.000000
151.312671 77.000000
151.362808 48.000000
151.412944 48.000000
151.463081 20.000000
151.513218 45.000000
151.563355 85.000000
151.613491 81.000000
151.663628 83.000000
151.713765 62.000000
151.763902 94.000000
151.814038 91.000000
151.864175 95.000000
151.914312 87.000000
151.964448 58.000000
152.014585 55.000000
152.064722 67.000000
152.114859 66.000000
152.164995 72.000000
152.215132 14.000000
152.265269 19.000000
152.315406 31.000000
152.365542 58.000000
152.415679 43.000000
152.465816 66.000000
152.515953 20.000000
152.566089 48.000000
152.616226 45.000000
152.666363 59.000000
152.716500 74.000000
152.766636 96.000000
152.816773 42.000000
152.866910 47.000000
152.917046 43.000000
152.967183 56.000000
153.017320 76.000000
153.067457 41.000000
153.117593 83.000000
153.167730 86.000000
153.217867 84.000000
153.268004 71.000000
153.318140 72.000000
153.368277 80.000000
153.418414 81.000000
153.468551 57.000000
153.518687 76.000000
153.568824 70.000000
153.618961 52.000000
153.669098 84.000000
153.719234 56.000000
153.769371 47.000000
153.819508 62.000000
153.869644 55.000000
153.919781 71.000000
153.969918 73.000000
154.020055 97.000000
154.070191 73.000000
154.120328 51.000000
154.170465 70.000000
154.220602 72.000000
154.270738 73.000000
154.320875 93.000000
154.371012 97.000000
154.421149 36.000000
154.471285 42.000000
154.521422 65.000000
154.571559 85.000000
154.621696 43.000000
154.671832 43.000000
154.721969 31.000000
154.772106 58.000000
154.822242 26.000000
154.872379 26.000000
154.922516 37.000000
154.972653 50.000000
155.022789 67.000000
155.072926 70.000000
155.123063 88.000000
155.173200 74.000000
155.223336 76.000000
155.273473 11.000000
155.323610 19.000000
155.373747 51.000000
155.423883 57.000000
155.474020 79.000000
155.524157 55.000000
155.574294 50.000000
155.624430 78.000000
155.674567 72.000000
155.724704 69.000000
155.774840 59.000000
155.824977 54.000000
155.875114 58.000000
155.925251 58.000000
155.975387 90.000000
156.025524 40.000000
156.075661 65.000000
156.125798 52.000000
156.175934 42.000000
156.226071 50.000000
156.276208 52.000000
156.326345 72.000000
156.376481 48.000000
156.426618 36.000000
156.476755 63.000000
156.526892 47.000000
156.577028 72.000000
156.627165 53.000000
156.677302 23.000000
156.727438 62.000000
156.777575 49.000000
156.827712 61.000000
156.877849 84.000000
156.927985 54.000000
156.978122 64.000000
157.028259 52.000000
157.078396 73.000000
157.128532 78.000000
157.178669 58.000000
157.228806 79.000000
157.278943 81.000000
157.329079 81.000000
157.379216 100.000000
157.429353 68.000000
157.479490 57.000000
157.529626 58.000000
157.579763 47.000000
157.629900 48.000000
157.680036 87.000000
157.730173 42.000000
157.780310 37.000000
157.830447 94.000000
157.880583 60.000000
157.930720 59.000000
157.980857 64.000000
158.030994 50.000000
158.081130 53.000000
158.131267 64.000000
158.181404 44.000000
158.231541 74.000000
158.281677 28.000000
158.331814 61.000000
158.381951 81.000000
158.432088 58.000000
158.482224 79.000000
158.532361 61.000000
158.582498 47.000000
158.632634 48.000000
158.682771 68.000000
158.732908 69.000000
158.783045 61.000000
158.833181 68.000000
158.883318 75.000000
158.933455 63.000000
158.983592 47.000000
159.033728 59.000000
159.083865 44.000000
159.134002 53.000000
159.184139 54.000000
159.234275 40.000000
159.284412 74.000000
159.334549 75.000000
159.384686 71.000000
159.434822 66.000000
159.484959 75.000000
159.535096 69.000000
159.585232 79.000000
159.635369 82.000000
159.685506 56.000000
159.735643 78.000000
159.785779 66.000000
159.835916 74.000000
159.886053 76.000000
159.936190 41.000000
159.986326 73.000000
160.036463 74.000000
160.086600 67.000000
160.136737 47.000000
160.186873 64.000000
160.237010 41.000000
160.287147 90.000000
160.337284 63.000000
160.387420 70.000000
160.437557 69.000000
160.487694 76.000000
160.537830 106.000000
160.587967 55.000000
160.638104 64.000000
160.688241 54.000000
160.738377 43.000000
160.788514 35.000000
160.838651 101.000000
160.888788 84.000000
160.938924 97.000000
160.989061 55.000000
161.039198 63.000000
161.089335 64.000000
161.139471 53.000000
161.189608 78.000000
161.239745 75.000000
161.289881 78.000000
161.340018 50.000000
161.390155 52.000000
161.440292 74.000000
161.490428 75.000000
161.540565 48.000000
161.590702 55.000000
161.640839 58.000000
161.690975 47.000000
161.741112 40.000000
161.791249 19.000000
161.841386 38.000000
161.891522 50.000000
161.941659 70.000000
161.991796 84.000000
162.041933 116.000000
162.092069 63.000000
162.142206 37.000000
162.192343 47.000000
162.242479 51.000000
162.292616 39.000000
162.342753 64.000000
162.392890 45.000000
162.443026 47.000000
162.493163 47.000000
162.543300 49.000000
162.593437 75.000000
162.643573 80.000000
162.693710 83.000000
162.743847 83.000000
162.793984 63.000000
162.844120 58.000000
162.894257 64.000000
162.944394 40.000000
162.994531 58.000000
163.044667 60.000000
163.094804 54.000000
163.144941 57.000000
163.195077 55.000000
163.245214 49.000000
163.295351 83.000000
163.345488 95.000000
163.395624 108.000000
163.445761 112.000000
163.495898 67.000000
163.546035 24.000000
163.596171 70.000000
163.646308 96.000000
163.696445 74.000000
163.746582 41.000000
163.796718 57.000000
163.846855 59.000000
163.896992 59.000000
163.947129 71.000000
163.997265 62.000000
164.047402 80.000000
164.097539 81.000000
164.147675 85.000000
164.197812 86.000000
164.247949 73.000000
164.298086 57.000000
164.348222 58.000000
164.398359 60.000000
164.448496 75.000000
164.498633 87.000000
164.548769 75.000000
164.598906 67.000000
164.649043 72.000000
164.699180 54.000000
164.749316 77.000000
164.799453 80.000000
164.849590 59.000000
164.899727 73.000000
164.949863 74.000000
165.000000 79.000000
165.050137 81.000000
165.100273 6.000000
165.150410 19.000000
165.200547 57.000000
165.250684 51.000000
165.300820 82.000000
165.350957 68.000000
165.401094 65.000000
165.451231 22.000000
165.501367 53.000000
165.551504 67.000000
165.601641 64.000000
165.651778 52.000000
165.701914 29.000000
165.752051 33.000000
165.802188 61.000000
165.852325 63.000000
165.902461 55.000000
165.952598 56.000000
166.002735 28.000000
166.052871 91.000000
166.103008 94.000000
166.153145 62.000000
166.203282 33.000000
166.253418 52.000000
166.303555 54.000000
166.353692 71.000000
166.403829 40.000000
166.453965 63.000000
166.504102 40.000000
166.554239 35.000000
166.604376 84.000000
166.654512 60.000000
166.704649 62.000000
166.754786 47.000000
166.804923 49.000000
166.855059 82.000000
166.905196 84.000000
166.955333 87.000000
167.005469 54.000000
167.055606 58.000000
167.105743 22.000000
167.155880 104.000000
167.206016 38.000000
167.256153 75.000000
167.306290 50.000000
167.356427 48.000000
167.406563 63.000000
167.456700 78.000000
167.506837 52.000000
167.556974 49.000000
167.607110 74.000000
167.657247 72.000000
167.707384 70.000000
167.757521 56.000000
167.807657 52.000000
167.857794 68.000000
167.907931 73.000000
167.958067 80.000000
168.008204 49.000000
168.058341 51.000000
168.108478 47.000000
168.158614 64.000000
168.208751 69.000000
168.258888 69.000000
168.309025 50.000000
168.359161 52.000000
168.409298 51.000000
168.459435 37.000000
168.509572 85.000000
168.559708 71.000000
168.609845 81.000000
168.659982 57.000000
168.710119 96.000000
168.760255 49.000000
168.810392 86.000000
168.860529 49.000000
168.910665 74.000000
168.960802 75.000000
169.010939 10.000000
169.061076 55.000000
169.111212 57.000000
169.161349 94.000000
169.211486 97.000000
169.261623 75.000000
169.311759 49.000000
169.361896 54.000000
169.412033 90.000000
169.462170 118.000000
169.512306 61.000000
169.562443 57.000000
169.612580 72.000000
169.662716 60.000000
169.712853 62.000000
169.762990 66.000000
169.813127 74.000000
169.863263 82.000000
169.913400 43.000000
169.963537 91.000000
170.013674 86.000000
170.063810 64.000000
170.113947 35.000000
170.164084 51.000000
170.214221 42.000000
170.264357 53.000000
170.314494 56.000000
170.364631 46.000000
170.414768 61.000000
170.464904 98.000000
170.515041 41.000000
170.565178 52.000000
170.615314 70.000000
170.665451 10.000000
170.715588 21.000000
170.765725 85.000000
170.815861 87.000000
170.865998 94.000000
170.916135 108.000000
170.966272 109.000000
171.016408 66.000000
171.066545 63.000000
171.116682 68.000000
171.166819 74.000000
171.216955 76.000000
171.267092 76.000000
171.317229 78.000000
171.367366 59.000000
171.417502 87.000000
171.467639 32.000000
171.517776 71.000000
171.567912 40.000000
171.618049 48.000000
171.668186 78.000000
171.718323 78.000000
171.768459 61.000000
171.818596 70.000000
171.868733 41.000000
171.918870 49.000000
171.969006 55.000000
172.019143 51.000000
172.069280 46.000000
172.119417 41.000000
172.169553 47.000000
172.219690 46.000000
172.269827 46.000000
172.319964 56.000000
172.370100 57.000000
172.420237 85.000000
172.470374 87.000000
172.520510 64.000000
172.570647 0.000000
172.620784 102.000000
172.670921 62.000000
172.721057 46.000000
172.771194 72.000000
172.821331 32.000000
172.871468 25.000000
172.921604 34.000000
172.971741 63.000000
173.021878 93.000000
173.072015 70.000000
173.122151 42.000000
173.172288 50.000000
173.222425 52.000000
173.272562 78.000000
173.322698 78.000000
173.372835 39.000000
173.422972 29.000000
173.473108 43.000000
173.523245 34.000000
173.573382 48.000000
173.623519 50.000000
173.673655 59.000000
173.723792 60.000000
173.773929 36.000000
173.824066 76.000000
173.874202 57.000000
173.924339 42.000000
173.974476 60.000000
174.024613 61.000000
174.074749 67.000000
174.124886 70.000000
174.175023 71.000000
174.225160 81.000000
174.275296 82.000000
174.325433 97.000000
174.375570 62.000000
174.425706 61.000000
174.475843 90.000000
174.525980 86.000000
174.576117 82.000000
174.626253 66.000000
174.676390 66.000000
174.726527 88.000000
174.776664 4.000000
174.826800 49.000000
174.876937 30.000000
174.927074 60.000000
174.977211 40.000000
175.027347 33.000000
175.077484 13.000000
175.127621 16.000000
175.177758 26.000000
175.227894 60.000000
175.278031 58.000000
175.328168 19.000000
175.378304 63.000000
175.428441 72.000000
175.478578 82.000000
175.528715 77.000000
175.578851 45.000000
175.628988 25.000000
175.679125 32.000000
175.729262 67.000000
175.779398 70.000000
175.829535 74.000000
175.879672 54.000000
175.929809 46.000000
175.979945 65.000000
176.030082 50.000000
176.080219 58.000000
176.130356 49.000000
176.180492 68.000000
176.230629 70.000000
176.280766 62.000000
176.330902 78.000000
176.381039 82.000000
176.431176 16.000000
176.481313 67.000000
176.531449 55.000000
176.581586 103.000000
176.631723 88.000000
176.681860 56.000000
176.731996 81.000000
176.782133 60.000000
176.832270 99.000000
176.882407 84.000000
176.932543 66.000000
176.982680 42.000000
177.032817 72.000000
177.082954 72.000000
177.133090 69.000000
177.183227 85.000000
177.233364 64.000000
177.283500 44.000000
177.333637 52.000000
177.383774 69.000000
177.433911 68.000000
177.484047 54.000000
177.534184 44.000000
177.584321 84.000000
177.634458 55.000000
177.684594 68.000000
177.734731 87.000000
177.784868 58.000000
177.835005 40.000000
177.885141 70.000000
177.935278 73.000000
177.985415 40.000000
178.035552 75.000000
178.085688 39.000000
178.135825 54.000000
178.185962 69.000000
178.236098 58.000000
178.286235 32.000000
178.336372 6.000000
178.386509 66.000000
178.436645 31.000000
178.486782 44.000000
178.536919 64.000000
178.587056 50.000000
178.637192 31.000000
178.687329 68.000000
178.737466 66.000000
178.787603 61.000000
178.837739 55.000000
178.887876 38.000000
178.938013 24.000000
178.988149 56.000000
179.038286 59.000000
179.088423 60.000000
179.138560 51.000000
179.188696 10.000000
179.238833 63.000000
179.288970 69.000000
179.339107 31.000000
179.389243 46.000000
179.439380 63.000000
179.489517 64.000000
179.539654 49.000000
179.589790 45.000000
179.639927 73.000000
179.690064 58.000000
179.740201 38.000000
179.790337 50.000000
179.840474 57.000000
179.890611 32.000000
179.940747 22.000000
179.990884 7.000000
180.041021 48.000000
180.091158 88.000000
180.141294 61.000000
180.191431 15.000000
180.241568 31.000000
180.291705 46.000000
180.341841 70.000000
180.391978 36.000000
180.442115 41.000000
180.492252 72.000000
180.542388 60.000000
180.592525 105.000000
180.642662 59.000000
180.692799 81.000000
180.742935 79.000000
180.793072 82.000000
180.843209 60.000000
180.893345 69.000000
180.943482 32.000000
180.993619 52.000000
181.043756 51.000000
181.093892 59.000000
181.144029 60.000000
181.194166 83.000000
181.244303 56.000000
181.294439 54.000000
181.344576 43.000000
181.394713 56.000000
181.444850 60.000000
181.494986 76.000000
181.545123 62.000000
181.595260 78.000000
181.645397 70.000000
181.695533 61.000000
181.745670 39.000000
181.795807 72.000000
181.845943 73.000000
181.896080 48.000000
181.946217 90.000000
181.996354 14.000000
182.046490 43.000000
182.096627 39.000000
182.146764 73.000000
182.196901 49.000000
182.247037 41.000000
182.297174 77.000000
182.347311 49.000000
182.397448 97.000000
182.447584 49.000000
182.497721 46.000000
182.547858 31.000000
182.597995 77.000000
182.648131 84.000000
182.698268 73.000000
182.748405 63.000000
182.798541 58.000000
182.848678 79.000000
182.898815 62.000000
182.948952 36.000000
182.999088 19.000000
183.049225 23.000000
183.099362 35.000000
183.149499 42.000000
183.199635 52.000000
183.249772 67.000000
183.299909 47.000000
183.350046 86.000000
183.400182 119.000000
183.450319 68.000000
183.500456 57.000000
183.550593 65.000000
183.600729 72.000000
183.650866 58.000000
183.701003 57.000000
183.751139 90.000000
183.801276 40.000000
183.851413 57.000000
183.901550 84.000000
183.951686 70.000000
184.001823 72.000000
184.051960 99.000000
184.102097 85.000000
184.152233 69.000000
184.202370 92.000000
184.252507 77.000000
184.302644 62.000000
184.352780 65.000000
184.402917 57.000000
184.453054 96.000000
184.503191 101.000000
184.553327 73.000000
184.603464 49.000000
184.653601 36.000000
184.703737 75.000000
184.753874 76.000000
184.804011 70.000000
184.854148 46.000000
184.904284 45.000000
184.954421 17.000000
185.004558 86.000000
185.054695 108.000000
185.104831 43.000000
185.154968 82.000000
185.205105 35.000000
185.255242 57.000000
185.305378 58.000000
185.355515 36.000000
185.405652 33.000000
185.455789 67.000000
185.505925 67.000000
185.556062 67.000000
185.606199 73.000000
185.656335 46.000000
185.706472 72.000000
185.756609 79.000000
185.806746 80.000000
185.856882 66.000000
185.907019 74.000000
185.957156 41.000000
186.007293 42.000000
186.057429 46.000000
186.107566 79.000000
186.157703 63.000000
186.207840 69.000000
186.257976 79.000000
186.308113 41.000000
186.358250 67.000000
186.408387 49.000000
186.458523 65.000000
186.508660 28.000000
186.558797 58.000000
186.608933 32.000000
186.659070 61.000000
186.709207 53.000000
186.759344 40.000000
186.809480 48.000000
186.859617 35.000000
186.909754 87.000000
186.959891 88.000000
187.010027 86.000000
187.060164 59.000000
187.110301 35.000000
187.160438 61.000000
187.210574 57.000000
187.260711 73.000000
187.310848 28.000000
187.360985 51.000000
187.411121 54.000000
187.461258 90.000000
187.511395 69.000000
187.561531 67.000000
187.611668 80.000000
187.661805 72.000000
187.711942 77.000000
187.762078 57.000000
187.812215 50.000000
187.862352 65.000000
187.912489 67.000000
187.962625 28.000000
188.012762 58.000000
188.062899 60.000000
188.113036 62.000000
188.163172 77.000000
188.213309 34.000000
188.263446 75.000000
188.313582 67.000000
188.363719 67.000000
188.413856 56.000000
188.463993 89.000000
188.514129 50.000000
188.564266 44.000000
188.614403 62.000000
188.664540 53.000000
188.714676 41.000000
188.764813 26.000000
188.814950 35.000000
188.865087 37.000000
188.915223 37.000000
188.965360 51.000000
189.015497 64.000000
189.065634 7.000000
189.115770 82.000000
189.165907 85.000000
189.216044 49.000000
189.266180 54.000000
189.316317 73.000000
189.366454 89.000000
189.416591 48.000000
189.466727 57.000000
189.516864 58.000000
189.567001 76.000000
189.617138 72.000000
189.667274 67.000000
189.717411 52.000000
189.767548 57.000000
189.817685 54.000000
189.867821 38.000000
189.917958 47.000000
189.968095 61.000000
190.018232 51.000000
190.068368 63.000000
190.118505 68.000000
190.168642 54.000000
190.218778 82.000000
190.268915 58.000000
190.319052 63.000000
190.369189 70.000000
190.419325 57.000000
190.469462 59.000000
190.519599 62.000000
190.569736 59.000000
190.619872 38.000000
190.670009 88.000000
190.720146 76.000000
190.770283 62.000000
190.820419 34.000000
190.870556 57.000000
190.920693 63.000000
190.970830 17.000000
191.020966 41.000000
191.071103 41.000000
191.121240 52.000000
191.171376 83.000000
191.221513 41.000000
191.271650 48.000000
191.321787 54.000000
191.371923 107.000000
191.422060 110.000000
191.472197 70.000000
191.522334 49.000000
191.572470 54.000000
191.622607 84.000000
191.672744 77.000000
191.722881 78.000000
191.773017 42.000000
191.823154 57.000000
191.873291 58.000000
191.923428 36.000000
191.973564 33.000000
192.023701 32.000000
192.073838 21.000000
192.123974 66.000000
192.174111 67.000000
192.224248 38.000000
192.274385 91.000000
192.324521 47.000000
192.374658 61.000000
192.424795 62.000000
192.474932 58.000000
192.525068 61.000000
192.575205 31.000000
192.625342 0.000000
192.675479 74.000000
192.725615 57.000000
192.775752 74.000000
192.825889 60.000000
192.876026 32.000000
192.926162 39.000000
192.976299 59.000000
193.026436 62.000000
193.076572 48.000000
193.126709 63.000000
193.176846 69.000000
193.226983 70.000000
193.277119 55.000000
193.327256 112.000000
193.377393 94.000000
193.427530 45.000000
193.477666 53.000000
193.527803 52.000000
193.577940 45.000000
193.628077 49.000000
193.678213 79.000000
193.728350 84.000000
193.778487 84.000000
193.828624 36.000000
193.878760 29.000000
193.928897 16.000000
193.979034 19.000000
194.029170 39.000000
194.079307 36.000000
194.129444 47.000000
194.179581 63.000000
194.229717 65.000000
194.279854 48.000000
194.329991 58.000000
194.380128 75.000000
194.430264 102.000000
194.480401 49.000000
194.530538 0.000000
194.580675 56.000000
194.630811 37.000000
194.680948 44.000000
194.731085 79.000000
194.781222 68.000000
194.831358 26.000000
194.881495 60.000000
194.931632 82.000000
194.981768 83.000000
195.031905 85.000000
195.082042 106.000000
195.132179 108.000000
195.182315 92.000000
195.232452 75.000000
195.282589 61.000000
195.332726 72.000000
195.382862 20.000000
195.432999 65.000000
195.483136 66.000000
195.533273 75.000000
195.583409 30.000000
195.633546 20.000000
195.683683 49.000000
195.733820 51.000000
195.783956 51.000000
195.834093 73.000000
195.884230 39.000000
195.934366 24.000000
195.984503 102.000000
196.034640 105.000000
196.084777 35.000000
196.134913 38.000000
196.185050 55.000000
196.235187 57.000000
196.285324 45.000000
196.335460 40.000000
196.385597 42.000000
196.435734 55.000000
196.485871 21.000000
196.536007 84.000000
196.586144 67.000000
196.636281 62.000000
196.686418 63.000000
196.736554 53.000000
196.786691 84.000000
196.836828 75.000000
196.886964 86.000000
196.937101 77.000000
196.987238 40.000000
197.037375 19.000000
197.087511 70.000000
197.137648 60.000000
197.187785 67.000000
197.237922 68.000000
197.288058 0.000000
197.338195 27.000000
197.388332 46.000000
197.438469 61.000000
197.488605 82.000000
197.538742 52.000000
197.588879 51.000000
197.639015 52.000000
197.689152 47.000000
197.739289 44.000000
197.789426 55.000000
197.839562 50.000000
197.889699 51.000000
197.939836 55.000000
197.989973 58.000000
198.040109 43.000000
198.090246 43.000000
198.140383 28.000000
198.190520 71.000000
198.240656 72.000000
198.290793 89.000000
198.340930 94.000000
198.391067 90.000000
198.441203 90.000000
198.491340 17.000000
198.541477 45.000000
198.591613 66.000000
198.641750 62.000000
198.691887 94.000000
198.742024 94.000000
198.792160 42.000000
198.842297 45.000000
198.892434 58.000000
198.942571 0.000000
198.992707 41.000000
199.042844 77.000000
199.092981 84.000000
199.143118 94.000000
199.193254 66.000000
199.243391 66.000000
199.293528 70.000000
199.343665 72.000000
199.393801 65.000000
199.443938 80.000000
199.494075 53.000000
199.544211 60.000000
199.594348 56.000000
199.644485 86.000000
199.694622 73.000000
199.744758 28.000000
199.794895 57.000000
199.845032 40.000000
199.895169 87.000000
199.945305 88.000000
199.995442 60.000000
200.045579 51.000000
200.095716 54.000000
200.145852 77.000000
200.195989 80.000000
200.246126 76.000000
200.296263 66.000000
200.346399 67.000000
200.396536 42.000000
200.446673 39.000000
200.496809 37.000000
200.546946 45.000000
200.597083 21.000000
200.647220 69.000000
200.697356 76.000000
200.747493 59.000000
200.797630 70.000000
200.847767 43.000000
200.897903 65.000000
200.948040 40.000000
200.998177 60.000000
201.048314 57.000000
201.098450 75.000000
201.148587 53.000000
201.198724 49.000000
201.248861 61.000000
201.298997 45.000000
201.349134 45.000000
201.399271 15.000000
201.449407 66.000000
201.499544 72.000000
201.549681 73.000000
201.599818 40.000000
201.649954 57.000000
201.700091 55.000000
201.750228 69.000000
201.800365 70.000000
201.850501 64.000000
201.900638 66.000000
201.950775 25.000000
202.000912 58.000000
202.051048 61.000000
202.101185 80.000000
202.151322 81.000000
202.201459 109.000000
202.251595 77.000000
202.301732 96.000000
202.351869 54.000000
202.402005 54.000000
202.452142 91.000000
202.502279 39.000000
202.552416 37.000000
202.602552 48.000000
202.652689 39.000000
202.702826 65.000000
202.752963 67.000000
202.803099 0.000000
202.853236 0.000000
202.903373 78.000000
202.953510 48.000000
203.003646 45.000000
203.053783 62.000000
203.103920 63.000000
203.154057 68.000000
203.204193 69.000000
203.254330 86.000000
203.304467 89.000000
203.354603 1.000000
203.404740 40.000000
203.454877 37.000000
203.505014 68.000000
203.555150 70.000000
203.605287 51.000000
203.655424 57.000000
203.705561 72.000000
203.755697 85.000000
203.805834 44.000000
203.855971 79.000000
203.906108 75.000000
203.956244 70.000000
204.006381 42.000000
204.056518 52.000000
204.106655 53.000000
204.156791 33.000000
204.206928 69.000000
204.257065 65.000000
204.307201 81.000000
204.357338 67.000000
204.407475 81.000000
204.457612 82.000000
204.507748 81.000000
204.557885 83.000000
204.608022 72.000000
204.658159 75.000000
204.708295 69.000000
204.758432 66.000000
204.808569 59.000000
204.858706 68.000000
204.908842 54.000000
204.958979 43.000000
205.009116 54.000000
205.059253 88.000000
205.109389 91.000000
205.159526 87.000000
205.209663 71.000000
205.259799 28.000000
205.309936 65.000000
205.360073 57.000000
205.410210 52.000000
205.460346 28.000000
205.510483 8.000000
205.560620 35.000000
205.610757 26.000000
205.660893 64.000000
205.711030 37.000000
205.761167 26.000000
205.811304 32.000000
205.861440 50.000000
205.911577 54.000000
205.961714 86.000000
206.011851 105.000000
206.061987 91.000000
206.112124 75.000000
206.162261 75.000000
206.212397 54.000000
206.262534 57.000000
206.312671 56.000000
206.362808 0.000000
206.412944 91.000000
206.463081 67.000000
206.513218 86.000000
206.563355 86.000000
206.613491 75.000000
206.663628 67.000000
206.713765 63.000000
206.763902 64.000000
206.814038 66.000000
206.864175 67.000000
206.914312 54.000000
206.964448 57.000000
207.014585 93.000000
207.064722 72.000000
207.114859 60.000000
207.164995 32.000000
207.215132 32.000000
207.265269 51.000000
207.315406 41.000000
207.365542 71.000000
207.415679 82.000000
207.465816 76.000000
207.515953 70.000000
207.566089 70.000000
207.616226 71.000000
207.666363 88.000000
207.716500 76.000000
207.766636 62.000000
207.816773 34.000000
207.866910 52.000000
207.917046 22.000000
207.967183 67.000000
208.017320 52.000000
208.067457 81.000000
208.117593 90.000000
208.167730 48.000000
208.217867 36.000000
208.268004 52.000000
208.318140 54.000000
208.368277 43.000000
208.418414 44.000000
208.468551 66.000000
208.518687 37.000000
208.568824 31.000000
208.618961 49.000000
208.669098 54.000000
208.719234 46.000000
208.769371 18.000000
208.819508 39.000000
208.869644 84.000000
208.919781 84.000000
208.969918 69.000000
209.020055 76.000000
209.070191 47.000000
209.120328 61.000000
209.170465 62.000000
209.220602 57.000000
209.270738 83.000000
209.320875 50.000000
209.371012 25.000000
209.421149 56.000000
209.471285 67.000000
209.521422 43.000000
209.571559 45.000000
209.621696 60.000000
209.671832 59.000000
209.721969 109.000000
209.772106 115.000000
209.822242 59.000000
209.872379 39.000000
209.922516 11.000000
209.972653 70.000000
210.022789 79.000000
210.072926 59.000000
210.123063 59.000000
210.173200 48.000000
210.223336 66.000000
210.273473 63.000000
210.323610 67.000000
210.373747 55.000000
210.423883 60.000000
210.474020 51.000000
210.524157 79.000000
210.574294 39.000000
210.624430 84.000000
210.674567 71.000000
210.724704 35.000000
210.774840 103.000000
210.824977 100.000000
210.875114 68.000000
210.925251 47.000000
210.975387 46.000000
211.025524 82.000000
211.075661 85.000000
211.125798 76.000000
211.175934 111.000000
211.226071 71.000000
211.276208 65.000000
211.326345 73.000000
211.376481 46.000000
211.426618 31.000000
211.476755 47.000000
211.526892 51.000000
211.577028 21.000000
211.627165 57.000000
211.677302 54.000000
211.727438 88.000000
211.777575 63.000000
211.827712 40.000000
211.877849 60.000000
211.927985 68.000000
211.978122 73.000000
212.028259 74.000000
212.078396 70.000000
212.128532 29.000000
212.178669 52.000000
212.228806 72.000000
212.278943 86.000000
212.329079 87.000000
212.379216 30.000000
212.429353 55.000000
212.479490 70.000000
212.529626 70.000000
212.579763 58.000000
212.629900 53.000000
212.680036 39.000000
212.730173 73.000000
212.780310 62.000000
212.830447 73.000000
212.880583 58.000000
212.930720 61.000000
212.980857 61.000000
213.030994 31.000000
213.081130 52.000000
213.131267 66.000000
213.181404 78.000000
213.231541 32.000000
213.281677 75.000000
213.331814 58.000000
213.381951 61.000000
213.432088 54.000000
213.482224 68.000000
213.532361 69.000000
213.582498 84.000000
213.632634 74.000000
213.682771 78.000000
213.732908 51.000000
213.783045 70.000000
213.833181 72.000000
213.883318 88.000000
213.933455 100.000000
213.983592 58.000000
214.033728 14.000000
214.083865 37.000000
214.134002 23.000000
214.184139 52.000000
214.234275 55.000000
214.284412 58.000000
214.334549 31.000000
214.384686 74.000000
214.434822 55.000000
214.484959 79.000000
214.535096 85.000000
214.585232 79.000000
214.635369 79.000000
214.685506 63.000000
214.735643 36.000000
214.785779 84.000000
214.835916 61.000000
214.886053 25.000000
214.936190 37.000000
214.986326 62.000000
215.036463 66.000000
215.086600 50.000000
215.136737 57.000000
215.186873 58.000000
215.237010 37.000000
215.287147 70.000000
215.337284 73.000000
215.387420 51.000000
215.437557 29.000000
215.487694 36.000000
215.537830 70.000000
215.587967 102.000000
215.638104 96.000000
215.688241 45.000000
215.738377 73.000000
215.788514 45.000000
215.838651 62.000000
215.888788 54.000000
215.938924 29.000000
215.989061 73.000000
216.039198 66.000000
216.089335 73.000000
216.139471 47.000000
216.189608 69.000000
216.239745 80.000000
216.289881 81.000000
216.340018 39.000000
216.390155 76.000000
216.440292 61.000000
216.490428 46.000000
216.540565 50.000000
216.590702 62.000000
216.640839 85.000000
216.690975 67.000000
216.741112 67.000000
216.791249 54.000000
216.841386 64.000000
216.891522 67.000000
216.941659 43.000000
216.991796 34.000000
217.041933 39.000000
217.092069 82.000000
217.142206 42.000000
217.192343 53.000000
217.242479 54.000000
217.292616 61.000000
217.342753 40.000000
217.392890 70.000000
217.443026 64.000000
217.493163 69.000000
217.543300 35.000000
217.593437 17.000000
217.643573 63.000000
217.693710 70.000000
217.743847 57.000000
217.793984 49.000000
217.844120 63.000000
217.894257 60.000000
217.944394 61.000000
217.994531 73.000000
218.044667 77.000000
218.094804 67.000000
218.144941 38.000000
218.195077 46.000000
218.245214 45.000000
218.295351 72.000000
218.345488 54.000000
218.395624 18.000000
218.445761 10.000000
218.495898 67.000000
218.546035 99.000000
218.596171 61.000000
218.646308 60.000000
218.696445 54.000000
218.746582 55.000000
218.796718 68.000000
218.846855 67.000000
218.896992 52.000000
218.947129 51.000000
218.997265 56.000000
219.047402 56.000000
219.097539 64.000000
219.147675 31.000000
219.197812 46.000000
219.247949 40.000000
219.298086 43.000000
219.348222 78.000000
219.398359 40.000000
219.448496 49.000000
219.498633 56.000000
219.548769 48.000000
219.598906 46.000000
219.649043 71.000000
219.699180 53.000000
219.749316 45.000000
219.799453 22.000000
219.849590 59.000000
219.899727 66.000000
219.949863 72.000000
220.000000 75.000000
220.050137 56.000000
220.100273 42.000000
220.150410 71.000000
220.200547 65.000000
220.250684 53.000000
220.300820 49.000000
220.350957 27.000000
220.401094 56.000000
220.451231 49.000000
220.501367 105.000000
220.551504 72.000000
220.601641 66.000000
220.651778 57.000000
220.701914 55.000000
220.752051 72.000000
220.802188 75.000000
220.852325 96.000000
220.902461 87.000000
220.952598 88.000000
221.002735 84.000000
221.052871 52.000000
221.103008 55.000000
221.153145 60.000000
221.203282 7.000000
221.253418 72.000000
221.303555 73.000000
221.353692 55.000000
221.403829 31.000000
221.453965 21.000000
221.504102 25.000000
221.554239 26.000000
221.604376 76.000000
221.654512 40.000000
221.704649 25.000000
221.754786 67.000000
221.804923 61.000000
221.855059 64.000000
221.905196 70.000000
221.955333 38.000000
222.005469 42.000000
222.055606 43.000000
222.105743 72.000000
222.155880 41.000000
222.206016 51.000000
222.256153 69.000000
222.306290 70.000000
222.356427 100.000000
222.406563 84.000000
222.456700 23.000000
222.506837 27.000000
222.556974 25.000000
222.607110 44.000000
222.657247 20.000000
222.707384 60.000000
222.757521 63.000000
222.807657 0.000000
222.857794 53.000000
222.907931 46.000000
222.958067 54.000000
223.008204 45.000000
223.058341 40.000000
223.108478 33.000000
223.158614 39.000000
223.208751 49.000000
223.258888 77.000000
223.309025 67.000000
223.359161 34.000000
223.409298 62.000000
223.459435 107.000000
223.509572 111.000000
223.559708 41.000000
223.609845 93.000000
223.659982 46.000000
223.710119 57.000000
223.760255 66.000000
223.810392 70.000000
223.860529 43.000000
223.910665 29.000000
223.960802 70.000000
224.010939 62.000000
224.061076 50.000000
224.111212 81.000000
224.161349 76.000000
224.211486 47.000000
224.261623 84.000000
224.311759 63.000000
224.361896 26.000000
224.412033 31.000000
224.462170 24.000000
224.512306 41.000000
224.562443 42.000000
224.612580 20.000000
224.662716 52.000000
224.712853 47.000000
224.762990 39.000000
224.813127 61.000000
224.863263 75.000000
224.913400 75.000000
224.963537 65.000000
225.013674 39.000000
225.063810 59.000000
225.113947 61.000000
225.164084 94.000000
225.214221 55.000000
225.264357 80.000000
225.314494 84.000000
225.364631 84.000000
225.414768 55.000000
225.464904 39.000000
225.515041 48.000000
225.565178 36.000000
225.615314 36.000000
225.665451 59.000000
225.715588 53.000000
225.765725 54.000000
225.815861 60.000000
225.865998 40.000000
225.916135 61.000000
225.966272 78.000000
226.016408 73.000000
226.066545 50.000000
226.116682 51.000000
226.166819 53.000000
226.216955 56.000000
226.267092 31.000000
226.317229 39.000000
226.367366 40.000000
226.417502 41.000000
226.467639 75.000000
226.517776 43.000000
226.567912 58.000000
226.618049 24.000000
226.668186 30.000000
226.718323 38.000000
226.768459 61.000000
226.818596 64.000000
226.868733 61.000000
226.918870 60.000000
226.969006 69.000000
227.019143 70.000000
227.069280 51.000000
227.119417 52.000000
227.169553 46.000000
227.219690 31.000000
227.269827 50.000000
227.319964 52.000000
227.370100 60.000000
227.420237 53.000000
227.470374 64.000000
227.520510 65.000000
227.570647 53.000000
227.620784 50.000000
227.670921 55.000000
227.721057 57.000000
227.771194 41.000000
227.821331 86.000000
227.871468 96.000000
227.921604 48.000000
227.971741 65.000000
228.021878 58.000000
228.072015 59.000000
228.122151 70.000000
228.172288 75.000000
228.222425 46.000000
228.272562 49.000000
228.322698 32.000000
228.372835 46.000000
228.422972 56.000000
228.473108 54.000000
228.523245 83.000000
228.573382 89.000000
228.623519 90.000000
228.673655 80.000000
228.723792 54.000000
228.773929 50.000000
228.824066 70.000000
228.874202 45.000000
228.924339 56.000000
228.974476 84.000000
229.024613 88.000000
229.074749 76.000000
229.124886 58.000000
229.175023 67.000000
229.225160 50.000000
229.275296 63.000000
229.325433 75.000000
229.375570 57.000000
229.425706 41.000000
229.475843 59.000000
229.525980 63.000000
229.576117 72.000000
229.626253 45.000000
229.676390 54.000000
229.726527 74.000000
229.776664 25.000000
229.826800 35.000000
229.876937 51.000000
229.927074 57.000000
229.977211 44.000000
230.027347 52.000000
230.077484 36.000000
230.127621 42.000000
230.177758 89.000000
230.227894 87.000000
230.278031 84.000000
230.328168 14.000000
230.378304 71.000000
230.428441 122.000000
230.478578 51.000000
230.528715 54.000000
230.578851 74.000000
230.628988 90.000000
230.679125 108.000000
230.729262 109.000000
230.779398 72.000000
230.829535 72.000000
230.879672 44.000000
230.929809 61.000000
230.979945 65.000000
231.030082 75.000000
231.080219 11.000000
231.130356 51.000000
231.180492 66.000000
231.230629 49.000000
231.280766 43.000000
231.330902 25.000000
231.381039 54.000000
231.431176 30.000000
231.481313 56.000000
231.531449 83.000000
231.581586 84.000000
231.631723 60.000000
231.681860 44.000000
231.731996 36.000000
231.782133 38.000000
231.832270 70.000000
231.882407 43.000000
231.932543 59.000000
231.982680 51.000000
232.032817 68.000000
232.082954 70.000000
232.133090 104.000000
232.183227 62.000000
232.233364 96.000000
232.283500 67.000000
232.333637 69.000000
232.383774 52.000000
232.433911 25.000000
232.484047 47.000000
232.534184 65.000000
232.584321 54.000000
232.634458 45.000000
232.684594 58.000000
232.734731 30.000000
232.784868 52.000000
232.835005 82.000000
232.885141 64.000000
232.935278 44.000000
232.985415 59.000000
233.035552 60.000000
233.085688 63.000000
233.135825 66.000000
233.185962 81.000000
233.236098 10.000000
233.286235 72.000000
233.336372 45.000000
233.386509 25.000000
233.436645 23.000000
233.486782 41.000000
233.536919 54.000000
233.587056 55.000000
233.637192 103.000000
233.687329 107.000000
233.737466 48.000000
233.787603 44.000000
233.837739 53.000000
233.887876 52.000000
233.938013 46.000000
233.988149 13.000000
234.038286 76.000000
234.088423 72.000000
234.138560 75.000000
234.188696 51.000000
234.238833 68.000000
234.288970 59.000000
234.339107 46.000000
234.389243 47.000000
234.439380 67.000000
234.489517 70.000000
234.539654 65.000000
234.589790 70.000000
234.639927 73.000000
234.690064 90.000000
234.740201 81.000000
234.790337 71.000000
234.840474 75.000000
234.890611 46.000000
234.940747 82.000000
234.990884 45.000000
235.041021 64.000000
235.091158 31.000000
235.141294 45.000000
235.191431 29.000000
235.241568 61.000000
235.291705 40.000000
235.341841 40.000000
235.391978 20.000000
235.442115 12.000000
235.492252 34.000000
235.542388 43.000000
235.592525 49.000000
235.642662 69.000000
235.692799 72.000000
235.742935 31.000000
235.793072 50.000000
235.843209 56.000000
235.893345 57.000000
235.943482 79.000000
235.993619 71.000000
236.043756 81.000000
236.093892 85.000000
236.144029 46.000000
236.194166 40.000000
236.244303 74.000000
236.294439 84.000000
236.344576 85.000000
236.394713 64.000000
236.444850 36.000000
236.494986 51.000000
236.545123 11.000000
236.595260 83.000000
236.645397 90.000000
236.695533 49.000000
236.745670 65.000000
236.795807 66.000000
##END=
