##TITLE= TP_Ejercicio_1c [300 MHZ ¹H NMR en CDCl₃]
##JCAMP-DX= 5.00
##ORIGIN= LISA RMN DB
##DATA TYPE= NMR SPECTRUM
##DATA CLASS= XYDATA
##$BF1= 300.0
##$SFO1= 300.0
##$NUC1= <1H>
##XUNITS=	PPM
##YUNITS=	Intensity
##NPOINTS=	5749
##FIRSTX=	-0.097007
##LASTX=	11.766770
##FIRSTY=	76.000000
##LASTY=	74.000000
##XFACTOR= 1
##YFACTOR= 1
##MAXY= 2345.000000
##MINY= 72.000000
##DELTAX= 0.002064
##XYDATA=(X++(Y..Y))
-0.097007 76.000000
-0.094943 76.000000
-0.092879 76.000000
-0.090815 76.000000
-0.088751 76.000000
-0.086687 76.000000
-0.084623 76.000000
-0.082559 76.000000
-0.080495 76.000000
-0.078431 76.000000
-0.076367 76.000000
-0.074303 76.000000
-0.072239 76.000000
-0.070175 76.000000
-0.068111 77.000000
-0.066047 77.000000
-0.063983 77.000000
-0.061920 77.000000
-0.059856 77.000000
-0.057792 78.000000
-0.055728 78.000000
-0.053664 78.000000
-0.051600 78.000000
-0.049536 78.000000
-0.047472 79.000000
-0.045408 79.000000
-0.043344 80.000000
-0.041280 80.000000
-0.039216 80.000000
-0.037152 80.000000
-0.035088 80.000000
-0.033024 80.000000
-0.030960 80.000000
-0.028896 81.000000
-0.026832 83.000000
-0.024768 83.000000
-0.022704 79.000000
-0.020640 78.000000
-0.018576 84.000000
-0.016512 89.000000
-0.014448 92.000000
-0.012384 98.000000
-0.010320 95.000000
-0.008256 125.000000
-0.006192 242.000000
-0.004128 319.000000
-0.002064 589.000000
0.000000 394.000000
0.002064 162.000000
0.004128 116.000000
0.006192 95.000000
0.008256 98.000000
0.010320 98.000000
0.012384 83.000000
0.014448 83.000000
0.016512 84.000000
0.018576 86.000000
0.020640 86.000000
0.022704 78.000000
0.024768 77.000000
0.026832 76.000000
0.028896 76.000000
0.030960 76.000000
0.033024 75.000000
0.035088 75.000000
0.037152 75.000000
0.039216 75.000000
0.041280 75.000000
0.043344 75.000000
0.045408 75.000000
0.047472 75.000000
0.049536 75.000000
0.051600 75.000000
0.053664 75.000000
0.055728 75.000000
0.057792 74.000000
0.059856 74.000000
0.061920 74.000000
0.063983 74.000000
0.066047 74.000000
0.068111 74.000000
0.070175 74.000000
0.072239 74.000000
0.074303 74.000000
0.076367 74.000000
0.078431 73.000000
0.080495 73.000000
0.082559 73.000000
0.084623 73.000000
0.086687 73.000000
0.088751 74.000000
0.090815 74.000000
0.092879 74.000000
0.094943 74.000000
0.097007 75.000000
0.099071 75.000000
0.101135 75.000000
0.103199 76.000000
0.105263 76.000000
0.107327 79.000000
0.109391 83.000000
0.111455 83.000000
0.113519 76.000000
0.115583 75.000000
0.117647 75.000000
0.119711 74.000000
0.121775 74.000000
0.123839 73.000000
0.125903 73.000000
0.127967 73.000000
0.130031 73.000000
0.132095 73.000000
0.134159 73.000000
0.136223 73.000000
0.138287 73.000000
0.140351 73.000000
0.142415 73.000000
0.144479 73.000000
0.146543 73.000000
0.148607 73.000000
0.150671 73.000000
0.152735 73.000000
0.154799 73.000000
0.156863 73.000000
0.158927 73.000000
0.160991 73.000000
0.163055 73.000000
0.165119 73.000000
0.167183 73.000000
0.169247 73.000000
0.171311 73.000000
0.173375 73.000000
0.175439 73.000000
0.177503 73.000000
0.179567 73.000000
0.181631 73.000000
0.183695 74.000000
0.185759 74.000000
0.187822 74.000000
0.189886 75.000000
0.191950 75.000000
0.194014 75.000000
0.196078 75.000000
0.198142 75.000000
0.200206 75.000000
0.202270 75.000000
0.204334 74.000000
0.206398 74.000000
0.208462 74.000000
0.210526 74.000000
0.212590 74.000000
0.214654 74.000000
0.216718 74.000000
0.218782 74.000000
0.220846 74.000000
0.222910 74.000000
0.224974 73.000000
0.227038 73.000000
0.229102 73.000000
0.231166 73.000000
0.233230 73.000000
0.235294 73.000000
0.237358 73.000000
0.239422 73.000000
0.241486 73.000000
0.243550 73.000000
0.245614 73.000000
0.247678 73.000000
0.249742 73.000000
0.251806 73.000000
0.253870 73.000000
0.255934 73.000000
0.257998 73.000000
0.260062 73.000000
0.262126 73.000000
0.264190 73.000000
0.266254 73.000000
0.268318 73.000000
0.270382 73.000000
0.272446 73.000000
0.274510 73.000000
0.276574 73.000000
0.278638 73.000000
0.280702 73.000000
0.282766 73.000000
0.284830 73.000000
0.286894 73.000000
0.288958 73.000000
0.291022 73.000000
0.293086 73.000000
0.295150 74.000000
0.297214 74.000000
0.299278 74.000000
0.301342 74.000000
0.303406 74.000000
0.305470 74.000000
0.307534 74.000000
0.309598 74.000000
0.311662 74.000000
0.313725 74.000000
0.315789 73.000000
0.317853 73.000000
0.319917 73.000000
0.321981 73.000000
0.324045 73.000000
0.326109 74.000000
0.328173 74.000000
0.330237 74.000000
0.332301 74.000000
0.334365 74.000000
0.336429 74.000000
0.338493 74.000000
0.340557 74.000000
0.342621 74.000000
0.344685 74.000000
0.346749 74.000000
0.348813 74.000000
0.350877 74.000000
0.352941 74.000000
0.355005 73.000000
0.357069 73.000000
0.359133 73.000000
0.361197 73.000000
0.363261 73.000000
0.365325 74.000000
0.367389 74.000000
0.369453 74.000000
0.371517 75.000000
0.373581 75.000000
0.375645 75.000000
0.377709 75.000000
0.379773 75.000000
0.381837 75.000000
0.383901 75.000000
0.385965 74.000000
0.388029 74.000000
0.390093 74.000000
0.392157 74.000000
0.394221 74.000000
0.396285 74.000000
0.398349 74.000000
0.400413 74.000000
0.402477 74.000000
0.404541 74.000000
0.406605 74.000000
0.408669 74.000000
0.410733 74.000000
0.412797 74.000000
0.414861 74.000000
0.416925 74.000000
0.418989 74.000000
0.421053 74.000000
0.423117 74.000000
0.425181 74.000000
0.427245 74.000000
0.429309 74.000000
0.431373 74.000000
0.433437 74.000000
0.435501 74.000000
0.437564 74.000000
0.439628 74.000000
0.441692 74.000000
0.443756 74.000000
0.445820 74.000000
0.447884 74.000000
0.449948 74.000000
0.452012 74.000000
0.454076 74.000000
0.456140 75.000000
0.458204 75.000000
0.460268 75.000000
0.462332 75.000000
0.464396 75.000000
0.466460 75.000000
0.468524 75.000000
0.470588 75.000000
0.472652 75.000000
0.474716 75.000000
0.476780 75.000000
0.478844 75.000000
0.480908 75.000000
0.482972 75.000000
0.485036 75.000000
0.487100 75.000000
0.489164 75.000000
0.491228 75.000000
0.493292 75.000000
0.495356 75.000000
0.497420 75.000000
0.499484 75.000000
0.501548 75.000000
0.503612 75.000000
0.505676 75.000000
0.507740 75.000000
0.509804 75.000000
0.511868 75.000000
0.513932 75.000000
0.515996 75.000000
0.518060 75.000000
0.520124 75.000000
0.522188 75.000000
0.524252 75.000000
0.526316 75.000000
0.528380 75.000000
0.530444 75.000000
0.532508 75.000000
0.534572 75.000000
0.536636 76.000000
0.538700 76.000000
0.540764 76.000000
0.542828 76.000000
0.544892 76.000000
0.546956 76.000000
0.549020 76.000000
0.551084 76.000000
0.553148 76.000000
0.555212 76.000000
0.557276 75.000000
0.559340 75.000000
0.561404 75.000000
0.563467 75.000000
0.565531 75.000000
0.567595 75.000000
0.569659 75.000000
0.571723 75.000000
0.573787 75.000000
0.575851 75.000000
0.577915 75.000000
0.579979 75.000000
0.582043 75.000000
0.584107 75.000000
0.586171 75.000000
0.588235 76.000000
0.590299 76.000000
0.592363 76.000000
0.594427 76.000000
0.596491 76.000000
0.598555 76.000000
0.600619 76.000000
0.602683 76.000000
0.604747 76.000000
0.606811 76.000000
0.608875 76.000000
0.610939 76.000000
0.613003 76.000000
0.615067 76.000000
0.617131 76.000000
0.619195 76.000000
0.621259 76.000000
0.623323 76.000000
0.625387 76.000000
0.627451 76.000000
0.629515 76.000000
0.631579 76.000000
0.633643 76.000000
0.635707 76.000000
0.637771 77.000000
0.639835 77.000000
0.641899 77.000000
0.643963 77.000000
0.646027 77.000000
0.648091 77.000000
0.650155 77.000000
0.652219 77.000000
0.654283 77.000000
0.656347 77.000000
0.658411 77.000000
0.660475 77.000000
0.662539 77.000000
0.664603 78.000000
0.666667 78.000000
0.668731 78.000000
0.670795 78.000000
0.672859 78.000000
0.674923 78.000000
0.676987 78.000000
0.679051 78.000000
0.681115 78.000000
0.683179 78.000000
0.685243 78.000000
0.687307 78.000000
0.689370 83.000000
0.691434 83.000000
0.693498 79.000000
0.695562 79.000000
0.697626 79.000000
0.699690 79.000000
0.701754 79.000000
0.703818 79.000000
0.705882 79.000000
0.707946 79.000000
0.710010 79.000000
0.712074 79.000000
0.714138 81.000000
0.716202 81.000000
0.718266 81.000000
0.720330 80.000000
0.722394 80.000000
0.724458 79.000000
0.726522 79.000000
0.728586 79.000000
0.730650 79.000000
0.732714 79.000000
0.734778 79.000000
0.736842 79.000000
0.738906 79.000000
0.740970 79.000000
0.743034 79.000000
0.745098 80.000000
0.747162 80.000000
0.749226 80.000000
0.751290 80.000000
0.753354 80.000000
0.755418 81.000000
0.757482 81.000000
0.759546 81.000000
0.761610 81.000000
0.763674 81.000000
0.765738 81.000000
0.767802 81.000000
0.769866 81.000000
0.771930 81.000000
0.773994 81.000000
0.776058 81.000000
0.778122 81.000000
0.780186 81.000000
0.782250 81.000000
0.784314 84.000000
0.786378 85.000000
0.788442 87.000000
0.790506 87.000000
0.792570 86.000000
0.794634 86.000000
0.796698 85.000000
0.798762 84.000000
0.800826 87.000000
0.802890 87.000000
0.804954 84.000000
0.807018 84.000000
0.809082 84.000000
0.811146 84.000000
0.813209 95.000000
0.815273 96.000000
0.817337 86.000000
0.819401 84.000000
0.821465 85.000000
0.823529 86.000000
0.825593 86.000000
0.827657 86.000000
0.829721 86.000000
0.831785 85.000000
0.833849 85.000000
0.835913 87.000000
0.837977 92.000000
0.840041 87.000000
0.842105 86.000000
0.844169 85.000000
0.846233 84.000000
0.848297 84.000000
0.850361 84.000000
0.852425 84.000000
0.854489 84.000000
0.856553 85.000000
0.858617 85.000000
0.860681 86.000000
0.862745 86.000000
0.864809 86.000000
0.866873 86.000000
0.868937 86.000000
0.871001 86.000000
0.873065 86.000000
0.875129 87.000000
0.877193 87.000000
0.879257 87.000000
0.881321 87.000000
0.883385 87.000000
0.885449 87.000000
0.887513 84.000000
0.889577 78.000000
0.891641 93.000000
0.893705 93.000000
0.895769 92.000000
0.897833 91.000000
0.899897 90.000000
0.901961 90.000000
0.904025 90.000000
0.906089 91.000000
0.908153 91.000000
0.910217 89.000000
0.912281 80.000000
0.914345 93.000000
0.916409 103.000000
0.918473 104.000000
0.920537 99.000000
0.922601 98.000000
0.924665 97.000000
0.926729 98.000000
0.928793 98.000000
0.930857 99.000000
0.932921 99.000000
0.934985 98.000000
0.937049 96.000000
0.939112 101.000000
0.941176 107.000000
0.943240 107.000000
0.945304 107.000000
0.947368 107.000000
0.949432 107.000000
0.951496 107.000000
0.953560 110.000000
0.955624 111.000000
0.957688 112.000000
0.959752 113.000000
0.961816 116.000000
0.963880 119.000000
0.965944 120.000000
0.968008 121.000000
0.970072 121.000000
0.972136 119.000000
0.974200 120.000000
0.976264 123.000000
0.978328 123.000000
0.980392 120.000000
0.982456 119.000000
0.984520 127.000000
0.986584 147.000000
0.988648 153.000000
0.990712 154.000000
0.992776 165.000000
0.994840 179.000000
0.996904 302.000000
0.998968 1109.000000
1.001032 1167.000000
1.003096 869.000000
1.005160 545.000000
1.007224 247.000000
1.009288 194.000000
1.011352 184.000000
1.013416 190.000000
1.015480 190.000000
1.017544 207.000000
1.019608 254.000000
1.021672 557.000000
1.023736 1744.000000
1.025800 2299.000000
1.027864 2345.000000
1.029928 571.000000
1.031992 336.000000
1.034056 220.000000
1.036120 185.000000
1.038184 181.000000
1.040248 155.000000
1.042312 183.000000
1.044376 268.000000
1.046440 611.000000
1.048504 837.000000
1.050568 1431.000000
1.052632 1006.000000
1.054696 336.000000
1.056760 213.000000
1.058824 160.000000
1.060888 145.000000
1.062951 122.000000
1.065015 112.000000
1.067079 110.000000
1.069143 114.000000
1.071207 117.000000
1.073271 105.000000
1.075335 100.000000
1.077399 100.000000
1.079463 96.000000
1.081527 90.000000
1.083591 89.000000
1.085655 91.000000
1.087719 91.000000
1.089783 90.000000
1.091847 90.000000
1.093911 89.000000
1.095975 89.000000
1.098039 90.000000
1.100103 90.000000
1.102167 90.000000
1.104231 90.000000
1.106295 90.000000
1.108359 90.000000
1.110423 100.000000
1.112487 106.000000
1.114551 101.000000
1.116615 96.000000
1.118679 89.000000
1.120743 88.000000
1.122807 87.000000
1.124871 87.000000
1.126935 87.000000
1.128999 87.000000
1.131063 87.000000
1.133127 90.000000
1.135191 104.000000
1.137255 113.000000
1.139319 123.000000
1.141383 101.000000
1.143447 87.000000
1.145511 84.000000
1.147575 84.000000
1.149639 84.000000
1.151703 84.000000
1.153767 84.000000
1.155831 86.000000
1.157895 88.000000
1.159959 90.000000
1.162023 98.000000
1.164087 99.000000
1.166151 84.000000
1.168215 84.000000
1.170279 83.000000
1.172343 82.000000
1.174407 82.000000
1.176471 81.000000
1.178535 81.000000
1.180599 81.000000
1.182663 80.000000
1.184727 80.000000
1.186791 79.000000
1.188854 79.000000
1.190918 79.000000
1.192982 79.000000
1.195046 79.000000
1.197110 80.000000
1.199174 80.000000
1.201238 80.000000
1.203302 81.000000
1.205366 81.000000
1.207430 83.000000
1.209494 86.000000
1.211558 86.000000
1.213622 82.000000
1.215686 82.000000
1.217750 81.000000
1.219814 80.000000
1.221878 80.000000
1.223942 80.000000
1.226006 80.000000
1.228070 80.000000
1.230134 82.000000
1.232198 85.000000
1.234262 91.000000
1.236326 92.000000
1.238390 82.000000
1.240454 82.000000
1.242518 81.000000
1.244582 80.000000
1.246646 80.000000
1.248710 80.000000
1.250774 80.000000
1.252838 80.000000
1.254902 83.000000
1.256966 85.000000
1.259030 85.000000
1.261094 81.000000
1.263158 80.000000
1.265222 79.000000
1.267286 79.000000
1.269350 79.000000
1.271414 79.000000
1.273478 79.000000
1.275542 79.000000
1.277606 79.000000
1.279670 79.000000
1.281734 79.000000
1.283798 78.000000
1.285862 78.000000
1.287926 78.000000
1.289990 78.000000
1.292054 78.000000
1.294118 78.000000
1.296182 78.000000
1.298246 78.000000
1.300310 78.000000
1.302374 78.000000
1.304438 78.000000
1.306502 78.000000
1.308566 78.000000
1.310630 78.000000
1.312693 78.000000
1.314757 78.000000
1.316821 78.000000
1.318885 78.000000
1.320949 78.000000
1.323013 78.000000
1.325077 77.000000
1.327141 77.000000
1.329205 77.000000
1.331269 77.000000
1.333333 77.000000
1.335397 77.000000
1.337461 77.000000
1.339525 77.000000
1.341589 78.000000
1.343653 78.000000
1.345717 78.000000
1.347781 78.000000
1.349845 78.000000
1.351909 78.000000
1.353973 78.000000
1.356037 77.000000
1.358101 76.000000
1.360165 79.000000
1.362229 79.000000
1.364293 79.000000
1.366357 79.000000
1.368421 79.000000
1.370485 79.000000
1.372549 78.000000
1.374613 78.000000
1.376677 78.000000
1.378741 77.000000
1.380805 77.000000
1.382869 77.000000
1.384933 77.000000
1.386997 77.000000
1.389061 78.000000
1.391125 78.000000
1.393189 78.000000
1.395253 78.000000
1.397317 78.000000
1.399381 78.000000
1.401445 78.000000
1.403509 78.000000
1.405573 78.000000
1.407637 78.000000
1.409701 78.000000
1.411765 78.000000
1.413829 78.000000
1.415893 78.000000
1.417957 78.000000
1.420021 78.000000
1.422085 78.000000
1.424149 78.000000
1.426213 78.000000
1.428277 78.000000
1.430341 78.000000
1.432405 78.000000
1.434469 78.000000
1.436533 78.000000
1.438596 78.000000
1.440660 78.000000
1.442724 78.000000
1.444788 78.000000
1.446852 78.000000
1.448916 78.000000
1.450980 78.000000
1.453044 79.000000
1.455108 79.000000
1.457172 79.000000
1.459236 79.000000
1.461300 79.000000
1.463364 79.000000
1.465428 79.000000
1.467492 79.000000
1.469556 79.000000
1.471620 79.000000
1.473684 78.000000
1.475748 78.000000
1.477812 78.000000
1.479876 78.000000
1.481940 78.000000
1.484004 78.000000
1.486068 78.000000
1.488132 78.000000
1.490196 78.000000
1.492260 78.000000
1.494324 78.000000
1.496388 78.000000
1.498452 78.000000
1.500516 78.000000
1.502580 78.000000
1.504644 78.000000
1.506708 78.000000
1.508772 78.000000
1.510836 78.000000
1.512900 78.000000
1.514964 78.000000
1.517028 78.000000
1.519092 78.000000
1.521156 78.000000
1.523220 78.000000
1.525284 79.000000
1.527348 79.000000
1.529412 79.000000
1.531476 80.000000
1.533540 80.000000
1.535604 80.000000
1.537668 80.000000
1.539732 80.000000
1.541796 80.000000
1.543860 80.000000
1.545924 89.000000
1.547988 98.000000
1.550052 87.000000
1.552116 82.000000
1.554180 82.000000
1.556244 81.000000
1.558308 80.000000
1.560372 80.000000
1.562436 79.000000
1.564499 79.000000
1.566563 79.000000
1.568627 79.000000
1.570691 79.000000
1.572755 80.000000
1.574819 81.000000
1.576883 81.000000
1.578947 82.000000
1.581011 82.000000
1.583075 81.000000
1.585139 80.000000
1.587203 80.000000
1.589267 80.000000
1.591331 80.000000
1.593395 80.000000
1.595459 81.000000
1.597523 82.000000
1.599587 82.000000
1.601651 83.000000
1.603715 83.000000
1.605779 82.000000
1.607843 81.000000
1.609907 81.000000
1.611971 81.000000
1.614035 81.000000
1.616099 82.000000
1.618163 82.000000
1.620227 83.000000
1.622291 83.000000
1.624355 83.000000
1.626419 83.000000
1.628483 83.000000
1.630547 83.000000
1.632611 83.000000
1.634675 83.000000
1.636739 82.000000
1.638803 82.000000
1.640867 82.000000
1.642931 82.000000
1.644995 82.000000
1.647059 82.000000
1.649123 82.000000
1.651187 83.000000
1.653251 84.000000
1.655315 84.000000
1.657379 84.000000
1.659443 83.000000
1.661507 83.000000
1.663571 83.000000
1.665635 83.000000
1.667699 83.000000
1.669763 83.000000
1.671827 83.000000
1.673891 84.000000
1.675955 85.000000
1.678019 85.000000
1.680083 84.000000
1.682147 83.000000
1.684211 83.000000
1.686275 83.000000
1.688338 83.000000
1.690402 84.000000
1.692466 85.000000
1.694530 87.000000
1.696594 87.000000
1.698658 86.000000
1.700722 85.000000
1.702786 84.000000
1.704850 83.000000
1.706914 83.000000
1.708978 83.000000
1.711042 83.000000
1.713106 84.000000
1.715170 86.000000
1.717234 89.000000
1.719298 89.000000
1.721362 85.000000
1.723426 85.000000
1.725490 85.000000
1.727554 85.000000
1.729618 84.000000
1.731682 83.000000
1.733746 82.000000
1.735810 82.000000
1.737874 83.000000
1.739938 84.000000
1.742002 85.000000
1.744066 85.000000
1.746130 85.000000
1.748194 86.000000
1.750258 86.000000
1.752322 86.000000
1.754386 83.000000
1.756450 84.000000
1.758514 85.000000
1.760578 86.000000
1.762642 88.000000
1.764706 89.000000
1.766770 89.000000
1.768834 89.000000
1.770898 89.000000
1.772962 89.000000
1.775026 89.000000
1.777090 88.000000
1.779154 87.000000
1.781218 85.000000
1.783282 90.000000
1.785346 92.000000
1.787410 92.000000
1.789474 93.000000
1.791538 94.000000
1.793602 94.000000
1.795666 94.000000
1.797730 95.000000
1.799794 95.000000
1.801858 95.000000
1.803922 94.000000
1.805986 96.000000
1.808050 102.000000
1.810114 104.000000
1.812178 109.000000
1.814241 109.000000
1.816305 107.000000
1.818369 108.000000
1.820433 182.000000
1.822497 215.000000
1.824561 153.000000
1.826625 121.000000
1.828689 119.000000
1.830753 116.000000
1.832817 120.000000
1.834881 125.000000
1.836945 126.000000
1.839009 128.000000
1.841073 147.000000
1.843137 290.000000
1.845201 482.000000
1.847265 486.000000
1.849329 335.000000
1.851393 259.000000
1.853457 166.000000
1.855521 144.000000
1.857585 134.000000
1.859649 144.000000
1.861713 148.000000
1.863777 190.000000
1.865841 422.000000
1.867905 850.000000
1.869969 863.000000
1.872033 586.000000
1.874097 479.000000
1.876161 239.000000
1.878225 175.000000
1.880289 145.000000
1.882353 136.000000
1.884417 139.000000
1.886481 157.000000
1.888545 248.000000
1.890609 637.000000
1.892673 787.000000
1.894737 759.000000
1.896801 729.000000
1.898865 338.000000
1.900929 197.000000
1.902993 146.000000
1.905057 115.000000
1.907121 115.000000
1.909185 125.000000
1.911249 154.000000
1.913313 355.000000
1.915377 484.000000
1.917441 450.000000
1.919505 412.000000
1.921569 209.000000
1.923633 144.000000
1.925697 114.000000
1.927761 99.000000
1.929825 97.000000
1.931889 98.000000
1.933953 101.000000
1.936017 110.000000
1.938080 149.000000
1.940144 172.000000
1.942208 182.000000
1.944272 127.000000
1.946336 98.000000
1.948400 90.000000
1.950464 89.000000
1.952528 89.000000
1.954592 88.000000
1.956656 92.000000
1.958720 92.000000
1.960784 89.000000
1.962848 88.000000
1.964912 87.000000
1.966976 86.000000
1.969040 85.000000
1.971104 85.000000
1.973168 85.000000
1.975232 85.000000
1.977296 85.000000
1.979360 89.000000
1.981424 92.000000
1.983488 92.000000
1.985552 87.000000
1.987616 84.000000
1.989680 82.000000
1.991744 82.000000
1.993808 82.000000
1.995872 82.000000
1.997936 82.000000
2.000000 84.000000
2.002064 89.000000
2.004128 92.000000
2.006192 92.000000
2.008256 86.000000
2.010320 84.000000
2.012384 83.000000
2.014448 82.000000
2.016512 81.000000
2.018576 81.000000
2.020640 81.000000
2.022704 81.000000
2.024768 81.000000
2.026832 83.000000
2.028896 83.000000
2.030960 82.000000
2.033024 81.000000
2.035088 80.000000
2.037152 79.000000
2.039216 79.000000
2.041280 79.000000
2.043344 79.000000
2.045408 79.000000
2.047472 80.000000
2.049536 80.000000
2.051600 80.000000
2.053664 80.000000
2.055728 80.000000
2.057792 80.000000
2.059856 80.000000
2.061920 80.000000
2.063983 80.000000
2.066047 80.000000
2.068111 79.000000
2.070175 79.000000
2.072239 79.000000
2.074303 79.000000
2.076367 79.000000
2.078431 79.000000
2.080495 81.000000
2.082559 81.000000
2.084623 80.000000
2.086687 80.000000
2.088751 79.000000
2.090815 78.000000
2.092879 78.000000
2.094943 78.000000
2.097007 78.000000
2.099071 78.000000
2.101135 79.000000
2.103199 79.000000
2.105263 80.000000
2.107327 80.000000
2.109391 80.000000
2.111455 79.000000
2.113519 78.000000
2.115583 78.000000
2.117647 78.000000
2.119711 78.000000
2.121775 78.000000
2.123839 77.000000
2.125903 77.000000
2.127967 77.000000
2.130031 77.000000
2.132095 77.000000
2.134159 77.000000
2.136223 77.000000
2.138287 77.000000
2.140351 77.000000
2.142415 76.000000
2.144479 76.000000
2.146543 76.000000
2.148607 76.000000
2.150671 76.000000
2.152735 76.000000
2.154799 76.000000
2.156863 76.000000
2.158927 76.000000
2.160991 76.000000
2.163055 76.000000
2.165119 76.000000
2.167183 76.000000
2.169247 76.000000
2.171311 76.000000
2.173375 76.000000
2.175439 76.000000
2.177503 76.000000
2.179567 76.000000
2.181631 76.000000
2.183695 76.000000
2.185759 76.000000
2.187822 76.000000
2.189886 76.000000
2.191950 76.000000
2.194014 76.000000
2.196078 76.000000
2.198142 76.000000
2.200206 76.000000
2.202270 76.000000
2.204334 76.000000
2.206398 76.000000
2.208462 76.000000
2.210526 76.000000
2.212590 76.000000
2.214654 76.000000
2.216718 76.000000
2.218782 76.000000
2.220846 76.000000
2.222910 76.000000
2.224974 76.000000
2.227038 76.000000
2.229102 76.000000
2.231166 76.000000
2.233230 76.000000
2.235294 76.000000
2.237358 76.000000
2.239422 76.000000
2.241486 76.000000
2.243550 76.000000
2.245614 76.000000
2.247678 76.000000
2.249742 76.000000
2.251806 76.000000
2.253870 76.000000
2.255934 76.000000
2.257998 76.000000
2.260062 76.000000
2.262126 76.000000
2.264190 76.000000
2.266254 76.000000
2.268318 76.000000
2.270382 76.000000
2.272446 76.000000
2.274510 76.000000
2.276574 76.000000
2.278638 76.000000
2.280702 76.000000
2.282766 76.000000
2.284830 76.000000
2.286894 76.000000
2.288958 76.000000
2.291022 76.000000
2.293086 76.000000
2.295150 76.000000
2.297214 76.000000
2.299278 76.000000
2.301342 76.000000
2.303406 76.000000
2.305470 76.000000
2.307534 76.000000
2.309598 76.000000
2.311662 76.000000
2.313725 76.000000
2.315789 76.000000
2.317853 76.000000
2.319917 76.000000
2.321981 76.000000
2.324045 76.000000
2.326109 76.000000
2.328173 76.000000
2.330237 76.000000
2.332301 76.000000
2.334365 76.000000
2.336429 76.000000
2.338493 76.000000
2.340557 76.000000
2.342621 76.000000
2.344685 75.000000
2.346749 75.000000
2.348813 75.000000
2.350877 75.000000
2.352941 75.000000
2.355005 76.000000
2.357069 76.000000
2.359133 76.000000
2.361197 76.000000
2.363261 76.000000
2.365325 76.000000
2.367389 76.000000
2.369453 76.000000
2.371517 76.000000
2.373581 76.000000
2.375645 75.000000
2.377709 75.000000
2.379773 75.000000
2.381837 75.000000
2.383901 75.000000
2.385965 75.000000
2.388029 75.000000
2.390093 75.000000
2.392157 75.000000
2.394221 75.000000
2.396285 75.000000
2.398349 75.000000
2.400413 75.000000
2.402477 75.000000
2.404541 75.000000
2.406605 76.000000
2.408669 76.000000
2.410733 76.000000
2.412797 76.000000
2.414861 76.000000
2.416925 76.000000
2.418989 76.000000
2.421053 76.000000
2.423117 76.000000
2.425181 75.000000
2.427245 75.000000
2.429309 75.000000
2.431373 75.000000
2.433437 75.000000
2.435501 75.000000
2.437564 75.000000
2.439628 75.000000
2.441692 75.000000
2.443756 75.000000
2.445820 75.000000
2.447884 75.000000
2.449948 75.000000
2.452012 75.000000
2.454076 75.000000
2.456140 75.000000
2.458204 75.000000
2.460268 75.000000
2.462332 75.000000
2.464396 75.000000
2.466460 75.000000
2.468524 75.000000
2.470588 75.000000
2.472652 75.000000
2.474716 75.000000
2.476780 75.000000
2.478844 75.000000
2.480908 75.000000
2.482972 75.000000
2.485036 75.000000
2.487100 75.000000
2.489164 75.000000
2.491228 75.000000
2.493292 75.000000
2.495356 75.000000
2.497420 75.000000
2.499484 75.000000
2.501548 75.000000
2.503612 75.000000
2.505676 75.000000
2.507740 75.000000
2.509804 75.000000
2.511868 75.000000
2.513932 75.000000
2.515996 75.000000
2.518060 75.000000
2.520124 75.000000
2.522188 75.000000
2.524252 75.000000
2.526316 75.000000
2.528380 75.000000
2.530444 75.000000
2.532508 75.000000
2.534572 75.000000
2.536636 75.000000
2.538700 75.000000
2.540764 75.000000
2.542828 75.000000
2.544892 75.000000
2.546956 75.000000
2.549020 75.000000
2.551084 75.000000
2.553148 75.000000
2.555212 75.000000
2.557276 75.000000
2.559340 75.000000
2.561404 75.000000
2.563467 75.000000
2.565531 75.000000
2.567595 75.000000
2.569659 75.000000
2.571723 75.000000
2.573787 75.000000
2.575851 75.000000
2.577915 75.000000
2.579979 75.000000
2.582043 75.000000
2.584107 75.000000
2.586171 75.000000
2.588235 75.000000
2.590299 75.000000
2.592363 75.000000
2.594427 75.000000
2.596491 75.000000
2.598555 75.000000
2.600619 75.000000
2.602683 75.000000
2.604747 75.000000
2.606811 75.000000
2.608875 75.000000
2.610939 75.000000
2.613003 75.000000
2.615067 75.000000
2.617131 75.000000
2.619195 75.000000
2.621259 75.000000
2.623323 75.000000
2.625387 75.000000
2.627451 75.000000
2.629515 75.000000
2.631579 75.000000
2.633643 75.000000
2.635707 75.000000
2.637771 75.000000
2.639835 75.000000
2.641899 75.000000
2.643963 75.000000
2.646027 75.000000
2.648091 75.000000
2.650155 75.000000
2.652219 75.000000
2.654283 75.000000
2.656347 75.000000
2.658411 75.000000
2.660475 75.000000
2.662539 75.000000
2.664603 75.000000
2.666667 75.000000
2.668731 76.000000
2.670795 76.000000
2.672859 76.000000
2.674923 76.000000
2.676987 76.000000
2.679051 76.000000
2.681115 76.000000
2.683179 76.000000
2.685243 76.000000
2.687307 76.000000
2.689370 75.000000
2.691434 75.000000
2.693498 75.000000
2.695562 75.000000
2.697626 75.000000
2.699690 75.000000
2.701754 75.000000
2.703818 75.000000
2.705882 75.000000
2.707946 76.000000
2.710010 76.000000
2.712074 76.000000
2.714138 76.000000
2.716202 76.000000
2.718266 76.000000
2.720330 76.000000
2.722394 76.000000
2.724458 76.000000
2.726522 76.000000
2.728586 76.000000
2.730650 76.000000
2.732714 76.000000
2.734778 76.000000
2.736842 76.000000
2.738906 75.000000
2.740970 75.000000
2.743034 75.000000
2.745098 75.000000
2.747162 75.000000
2.749226 76.000000
2.751290 76.000000
2.753354 76.000000
2.755418 76.000000
2.757482 76.000000
2.759546 76.000000
2.761610 76.000000
2.763674 76.000000
2.765738 76.000000
2.767802 76.000000
2.769866 76.000000
2.771930 76.000000
2.773994 76.000000
2.776058 76.000000
2.778122 76.000000
2.780186 76.000000
2.782250 76.000000
2.784314 76.000000
2.786378 76.000000
2.788442 76.000000
2.790506 75.000000
2.792570 75.000000
2.794634 75.000000
2.796698 75.000000
2.798762 75.000000
2.800826 76.000000
2.802890 76.000000
2.804954 76.000000
2.807018 76.000000
2.809082 76.000000
2.811146 76.000000
2.813209 76.000000
2.815273 76.000000
2.817337 76.000000
2.819401 76.000000
2.821465 76.000000
2.823529 76.000000
2.825593 76.000000
2.827657 76.000000
2.829721 76.000000
2.831785 76.000000
2.833849 76.000000
2.835913 76.000000
2.837977 76.000000
2.840041 76.000000
2.842105 76.000000
2.844169 76.000000
2.846233 76.000000
2.848297 76.000000
2.850361 76.000000
2.852425 76.000000
2.854489 76.000000
2.856553 76.000000
2.858617 76.000000
2.860681 76.000000
2.862745 76.000000
2.864809 76.000000
2.866873 76.000000
2.868937 76.000000
2.871001 76.000000
2.873065 76.000000
2.875129 76.000000
2.877193 76.000000
2.879257 76.000000
2.881321 76.000000
2.883385 76.000000
2.885449 76.000000
2.887513 76.000000
2.889577 76.000000
2.891641 76.000000
2.893705 76.000000
2.895769 76.000000
2.897833 76.000000
2.899897 76.000000
2.901961 76.000000
2.904025 76.000000
2.906089 76.000000
2.908153 76.000000
2.910217 76.000000
2.912281 76.000000
2.914345 76.000000
2.916409 76.000000
2.918473 76.000000
2.920537 76.000000
2.922601 76.000000
2.924665 76.000000
2.926729 76.000000
2.928793 76.000000
2.930857 76.000000
2.932921 76.000000
2.934985 76.000000
2.937049 76.000000
2.939112 76.000000
2.941176 76.000000
2.943240 76.000000
2.945304 76.000000
2.947368 76.000000
2.949432 76.000000
2.951496 77.000000
2.953560 77.000000
2.955624 77.000000
2.957688 77.000000
2.959752 77.000000
2.961816 77.000000
2.963880 77.000000
2.965944 77.000000
2.968008 77.000000
2.970072 77.000000
2.972136 77.000000
2.974200 77.000000
2.976264 77.000000
2.978328 77.000000
2.980392 77.000000
2.982456 77.000000
2.984520 77.000000
2.986584 77.000000
2.988648 77.000000
2.990712 77.000000
2.992776 77.000000
2.994840 77.000000
2.996904 77.000000
2.998968 77.000000
3.001032 77.000000
3.003096 77.000000
3.005160 77.000000
3.007224 77.000000
3.009288 77.000000
3.011352 78.000000
3.013416 78.000000
3.015480 78.000000
3.017544 78.000000
3.019608 78.000000
3.021672 79.000000
3.023736 79.000000
3.025800 79.000000
3.027864 79.000000
3.029928 79.000000
3.031992 79.000000
3.034056 79.000000
3.036120 79.000000
3.038184 78.000000
3.040248 78.000000
3.042312 78.000000
3.044376 78.000000
3.046440 78.000000
3.048504 79.000000
3.050568 79.000000
3.052632 82.000000
3.054696 82.000000
3.056760 81.000000
3.058824 80.000000
3.060888 79.000000
3.062951 79.000000
3.065015 79.000000
3.067079 79.000000
3.069143 79.000000
3.071207 79.000000
3.073271 79.000000
3.075335 79.000000
3.077399 79.000000
3.079463 79.000000
3.081527 79.000000
3.083591 79.000000
3.085655 79.000000
3.087719 79.000000
3.089783 79.000000
3.091847 79.000000
3.093911 79.000000
3.095975 79.000000
3.098039 79.000000
3.100103 80.000000
3.102167 80.000000
3.104231 80.000000
3.106295 81.000000
3.108359 81.000000
3.110423 85.000000
3.112487 85.000000
3.114551 80.000000
3.116615 80.000000
3.118679 80.000000
3.120743 80.000000
3.122807 80.000000
3.124871 80.000000
3.126935 81.000000
3.128999 81.000000
3.131063 82.000000
3.133127 86.000000
3.135191 90.000000
3.137255 85.000000
3.139319 83.000000
3.141383 82.000000
3.143447 81.000000
3.145511 81.000000
3.147575 81.000000
3.149639 82.000000
3.151703 82.000000
3.153767 83.000000
3.155831 85.000000
3.157895 85.000000
3.159959 85.000000
3.162023 84.000000
3.164087 85.000000
3.166151 85.000000
3.168215 83.000000
3.170279 82.000000
3.172343 82.000000
3.174407 82.000000
3.176471 82.000000
3.178535 82.000000
3.180599 82.000000
3.182663 82.000000
3.184727 82.000000
3.186791 82.000000
3.188854 82.000000
3.190918 81.000000
3.192982 81.000000
3.195046 81.000000
3.197110 81.000000
3.199174 81.000000
3.201238 82.000000
3.203302 82.000000
3.205366 82.000000
3.207430 82.000000
3.209494 82.000000
3.211558 83.000000
3.213622 83.000000
3.215686 83.000000
3.217750 83.000000
3.219814 83.000000
3.221878 84.000000
3.223942 84.000000
3.226006 84.000000
3.228070 84.000000
3.230134 84.000000
3.232198 84.000000
3.234262 84.000000
3.236326 84.000000
3.238390 84.000000
3.240454 84.000000
3.242518 84.000000
3.244582 84.000000
3.246646 85.000000
3.248710 85.000000
3.250774 84.000000
3.252838 83.000000
3.254902 81.000000
3.256966 84.000000
3.259030 87.000000
3.261094 87.000000
3.263158 86.000000
3.265222 86.000000
3.267286 86.000000
3.269350 86.000000
3.271414 86.000000
3.273478 86.000000
3.275542 86.000000
3.277606 79.000000
3.279670 82.000000
3.281734 85.000000
3.283798 88.000000
3.285862 92.000000
3.287926 92.000000
3.289990 92.000000
3.292054 92.000000
3.294118 92.000000
3.296182 92.000000
3.298246 91.000000
3.300310 93.000000
3.302374 95.000000
3.304438 97.000000
3.306502 98.000000
3.308566 98.000000
3.310630 98.000000
3.312693 98.000000
3.314757 98.000000
3.316821 99.000000
3.318885 100.000000
3.320949 101.000000
3.323013 102.000000
3.325077 103.000000
3.327141 104.000000
3.329205 105.000000
3.331269 105.000000
3.333333 106.000000
3.335397 107.000000
3.337461 107.000000
3.339525 112.000000
3.341589 116.000000
3.343653 116.000000
3.345717 113.000000
3.347781 108.000000
3.349845 117.000000
3.351909 125.000000
3.353973 127.000000
3.356037 129.000000
3.358101 140.000000
3.360165 169.000000
3.362229 291.000000
3.364293 358.000000
3.366357 1092.000000
3.368421 1118.000000
3.370485 279.000000
3.372549 195.000000
3.374613 171.000000
3.376677 154.000000
3.378741 151.000000
3.380805 167.000000
3.382869 220.000000
3.384933 413.000000
3.386997 523.000000
3.389061 1967.000000
3.391125 2030.000000
3.393189 495.000000
3.395253 280.000000
3.397317 198.000000
3.399381 151.000000
3.401445 141.000000
3.403509 138.000000
3.405573 196.000000
3.407637 424.000000
3.409701 572.000000
3.411765 997.000000
3.413829 604.000000
3.415893 224.000000
3.417957 161.000000
3.420021 118.000000
3.422085 102.000000
3.424149 99.000000
3.426213 93.000000
3.428277 95.000000
3.430341 97.000000
3.432405 99.000000
3.434469 99.000000
3.436533 89.000000
3.438596 91.000000
3.440660 91.000000
3.442724 86.000000
3.444788 84.000000
3.446852 83.000000
3.448916 83.000000
3.450980 83.000000
3.453044 83.000000
3.455108 83.000000
3.457172 84.000000
3.459236 84.000000
3.461300 84.000000
3.463364 84.000000
3.465428 84.000000
3.467492 84.000000
3.469556 84.000000
3.471620 84.000000
3.473684 84.000000
3.475748 87.000000
3.477812 90.000000
3.479876 98.000000
3.481940 91.000000
3.484004 85.000000
3.486068 83.000000
3.488132 83.000000
3.490196 83.000000
3.492260 83.000000
3.494324 83.000000
3.496388 85.000000
3.498452 99.000000
3.500516 106.000000
3.502580 107.000000
3.504644 88.000000
3.506708 83.000000
3.508772 81.000000
3.510836 81.000000
3.512900 81.000000
3.514964 80.000000
3.517028 80.000000
3.519092 81.000000
3.521156 88.000000
3.523220 92.000000
3.525284 92.000000
3.527348 84.000000
3.529412 82.000000
3.531476 81.000000
3.533540 80.000000
3.535604 79.000000
3.537668 79.000000
3.539732 79.000000
3.541796 79.000000
3.543860 79.000000
3.545924 79.000000
3.547988 79.000000
3.550052 79.000000
3.552116 79.000000
3.554180 79.000000
3.556244 79.000000
3.558308 79.000000
3.560372 79.000000
3.562436 79.000000
3.564499 78.000000
3.566563 78.000000
3.568627 78.000000
3.570691 78.000000
3.572755 78.000000
3.574819 78.000000
3.576883 78.000000
3.578947 78.000000
3.581011 78.000000
3.583075 78.000000
3.585139 79.000000
3.587203 80.000000
3.589267 80.000000
3.591331 80.000000
3.593395 80.000000
3.595459 79.000000
3.597523 79.000000
3.599587 79.000000
3.601651 79.000000
3.603715 79.000000
3.605779 79.000000
3.607843 79.000000
3.609907 80.000000
3.611971 82.000000
3.614035 83.000000
3.616099 83.000000
3.618163 79.000000
3.620227 78.000000
3.622291 77.000000
3.624355 77.000000
3.626419 77.000000
3.628483 77.000000
3.630547 77.000000
3.632611 80.000000
3.634675 82.000000
3.636739 84.000000
3.638803 87.000000
3.640867 81.000000
3.642931 79.000000
3.644995 78.000000
3.647059 77.000000
3.649123 77.000000
3.651187 77.000000
3.653251 77.000000
3.655315 77.000000
3.657379 80.000000
3.659443 82.000000
3.661507 82.000000
3.663571 79.000000
3.665635 76.000000
3.667699 76.000000
3.669763 76.000000
3.671827 76.000000
3.673891 76.000000
3.675955 76.000000
3.678019 76.000000
3.680083 76.000000
3.682147 76.000000
3.684211 76.000000
3.686275 76.000000
3.688338 76.000000
3.690402 76.000000
3.692466 76.000000
3.694530 76.000000
3.696594 76.000000
3.698658 76.000000
3.700722 76.000000
3.702786 76.000000
3.704850 76.000000
3.706914 76.000000
3.708978 76.000000
3.711042 76.000000
3.713106 76.000000
3.715170 76.000000
3.717234 75.000000
3.719298 75.000000
3.721362 75.000000
3.723426 75.000000
3.725490 75.000000
3.727554 78.000000
3.729618 78.000000
3.731682 77.000000
3.733746 77.000000
3.735810 76.000000
3.737874 76.000000
3.739938 76.000000
3.742002 76.000000
3.744066 76.000000
3.746130 77.000000
3.748194 77.000000
3.750258 77.000000
3.752322 77.000000
3.754386 77.000000
3.756450 77.000000
3.758514 77.000000
3.760578 77.000000
3.762642 77.000000
3.764706 77.000000
3.766770 76.000000
3.768834 76.000000
3.770898 76.000000
3.772962 76.000000
3.775026 76.000000
3.777090 76.000000
3.779154 76.000000
3.781218 76.000000
3.783282 76.000000
3.785346 76.000000
3.787410 76.000000
3.789474 76.000000
3.791538 76.000000
3.793602 76.000000
3.795666 76.000000
3.797730 76.000000
3.799794 76.000000
3.801858 76.000000
3.803922 76.000000
3.805986 76.000000
3.808050 76.000000
3.810114 76.000000
3.812178 76.000000
3.814241 76.000000
3.816305 76.000000
3.818369 76.000000
3.820433 76.000000
3.822497 76.000000
3.824561 76.000000
3.826625 76.000000
3.828689 76.000000
3.830753 76.000000
3.832817 76.000000
3.834881 76.000000
3.836945 76.000000
3.839009 76.000000
3.841073 76.000000
3.843137 76.000000
3.845201 76.000000
3.847265 76.000000
3.849329 76.000000
3.851393 76.000000
3.853457 76.000000
3.855521 76.000000
3.857585 76.000000
3.859649 76.000000
3.861713 76.000000
3.863777 76.000000
3.865841 76.000000
3.867905 76.000000
3.869969 76.000000
3.872033 76.000000
3.874097 76.000000
3.876161 76.000000
3.878225 76.000000
3.880289 76.000000
3.882353 76.000000
3.884417 76.000000
3.886481 76.000000
3.888545 75.000000
3.890609 75.000000
3.892673 75.000000
3.894737 75.000000
3.896801 75.000000
3.898865 76.000000
3.900929 76.000000
3.902993 76.000000
3.905057 76.000000
3.907121 76.000000
3.909185 76.000000
3.911249 76.000000
3.913313 76.000000
3.915377 76.000000
3.917441 76.000000
3.919505 75.000000
3.921569 75.000000
3.923633 75.000000
3.925697 75.000000
3.927761 75.000000
3.929825 75.000000
3.931889 75.000000
3.933953 75.000000
3.936017 75.000000
3.938080 75.000000
3.940144 75.000000
3.942208 75.000000
3.944272 75.000000
3.946336 75.000000
3.948400 75.000000
3.950464 75.000000
3.952528 75.000000
3.954592 75.000000
3.956656 75.000000
3.958720 75.000000
3.960784 75.000000
3.962848 75.000000
3.964912 75.000000
3.966976 75.000000
3.969040 75.000000
3.971104 75.000000
3.973168 75.000000
3.975232 75.000000
3.977296 75.000000
3.979360 75.000000
3.981424 75.000000
3.983488 75.000000
3.985552 75.000000
3.987616 75.000000
3.989680 75.000000
3.991744 75.000000
3.993808 75.000000
3.995872 75.000000
3.997936 75.000000
4.000000 75.000000
4.002064 75.000000
4.004128 75.000000
4.006192 75.000000
4.008256 75.000000
4.010320 75.000000
4.012384 75.000000
4.014448 75.000000
4.016512 75.000000
4.018576 76.000000
4.020640 76.000000
4.022704 76.000000
4.024768 76.000000
4.026832 76.000000
4.028896 76.000000
4.030960 76.000000
4.033024 76.000000
4.035088 76.000000
4.037152 76.000000
4.039216 75.000000
4.041280 75.000000
4.043344 75.000000
4.045408 75.000000
4.047472 75.000000
4.049536 75.000000
4.051600 75.000000
4.053664 75.000000
4.055728 75.000000
4.057792 75.000000
4.059856 75.000000
4.061920 75.000000
4.063983 75.000000
4.066047 75.000000
4.068111 75.000000
4.070175 75.000000
4.072239 75.000000
4.074303 75.000000
4.076367 75.000000
4.078431 75.000000
4.080495 75.000000
4.082559 75.000000
4.084623 75.000000
4.086687 75.000000
4.088751 75.000000
4.090815 75.000000
4.092879 75.000000
4.094943 75.000000
4.097007 75.000000
4.099071 75.000000
4.101135 75.000000
4.103199 75.000000
4.105263 75.000000
4.107327 75.000000
4.109391 75.000000
4.111455 75.000000
4.113519 75.000000
4.115583 75.000000
4.117647 75.000000
4.119711 75.000000
4.121775 75.000000
4.123839 75.000000
4.125903 75.000000
4.127967 75.000000
4.130031 75.000000
4.132095 75.000000
4.134159 75.000000
4.136223 75.000000
4.138287 75.000000
4.140351 75.000000
4.142415 75.000000
4.144479 75.000000
4.146543 75.000000
4.148607 75.000000
4.150671 75.000000
4.152735 75.000000
4.154799 75.000000
4.156863 75.000000
4.158927 75.000000
4.160991 75.000000
4.163055 75.000000
4.165119 75.000000
4.167183 75.000000
4.169247 75.000000
4.171311 75.000000
4.173375 75.000000
4.175439 75.000000
4.177503 75.000000
4.179567 75.000000
4.181631 75.000000
4.183695 75.000000
4.185759 75.000000
4.187822 75.000000
4.189886 75.000000
4.191950 75.000000
4.194014 75.000000
4.196078 75.000000
4.198142 75.000000
4.200206 75.000000
4.202270 75.000000
4.204334 75.000000
4.206398 75.000000
4.208462 75.000000
4.210526 75.000000
4.212590 75.000000
4.214654 75.000000
4.216718 75.000000
4.218782 75.000000
4.220846 75.000000
4.222910 75.000000
4.224974 75.000000
4.227038 75.000000
4.229102 75.000000
4.231166 75.000000
4.233230 75.000000
4.235294 75.000000
4.237358 75.000000
4.239422 75.000000
4.241486 75.000000
4.243550 75.000000
4.245614 75.000000
4.247678 75.000000
4.249742 75.000000
4.251806 75.000000
4.253870 75.000000
4.255934 75.000000
4.257998 75.000000
4.260062 75.000000
4.262126 75.000000
4.264190 75.000000
4.266254 75.000000
4.268318 75.000000
4.270382 75.000000
4.272446 75.000000
4.274510 75.000000
4.276574 75.000000
4.278638 75.000000
4.280702 75.000000
4.282766 75.000000
4.284830 75.000000
4.286894 75.000000
4.288958 75.000000
4.291022 75.000000
4.293086 75.000000
4.295150 75.000000
4.297214 75.000000
4.299278 75.000000
4.301342 75.000000
4.303406 75.000000
4.305470 75.000000
4.307534 75.000000
4.309598 75.000000
4.311662 75.000000
4.313725 75.000000
4.315789 75.000000
4.317853 75.000000
4.319917 75.000000
4.321981 75.000000
4.324045 75.000000
4.326109 75.000000
4.328173 75.000000
4.330237 75.000000
4.332301 75.000000
4.334365 75.000000
4.336429 75.000000
4.338493 75.000000
4.340557 75.000000
4.342621 75.000000
4.344685 75.000000
4.346749 75.000000
4.348813 75.000000
4.350877 75.000000
4.352941 75.000000
4.355005 75.000000
4.357069 75.000000
4.359133 75.000000
4.361197 75.000000
4.363261 75.000000
4.365325 75.000000
4.367389 75.000000
4.369453 75.000000
4.371517 75.000000
4.373581 75.000000
4.375645 75.000000
4.377709 75.000000
4.379773 75.000000
4.381837 75.000000
4.383901 75.000000
4.385965 75.000000
4.388029 75.000000
4.390093 75.000000
4.392157 75.000000
4.394221 75.000000
4.396285 75.000000
4.398349 75.000000
4.400413 75.000000
4.402477 75.000000
4.404541 75.000000
4.406605 75.000000
4.408669 75.000000
4.410733 75.000000
4.412797 75.000000
4.414861 75.000000
4.416925 75.000000
4.418989 75.000000
4.421053 75.000000
4.423117 75.000000
4.425181 75.000000
4.427245 75.000000
4.429309 75.000000
4.431373 75.000000
4.433437 75.000000
4.435501 75.000000
4.437564 75.000000
4.439628 75.000000
4.441692 75.000000
4.443756 75.000000
4.445820 75.000000
4.447884 75.000000
4.449948 74.000000
4.452012 74.000000
4.454076 74.000000
4.456140 74.000000
4.458204 74.000000
4.460268 74.000000
4.462332 74.000000
4.464396 74.000000
4.466460 74.000000
4.468524 74.000000
4.470588 74.000000
4.472652 74.000000
4.474716 75.000000
4.476780 75.000000
4.478844 75.000000
4.480908 75.000000
4.482972 75.000000
4.485036 75.000000
4.487100 75.000000
4.489164 74.000000
4.491228 74.000000
4.493292 75.000000
4.495356 77.000000
4.497420 77.000000
4.499484 76.000000
4.501548 75.000000
4.503612 76.000000
4.505676 76.000000
4.507740 76.000000
4.509804 76.000000
4.511868 76.000000
4.513932 75.000000
4.515996 74.000000
4.518060 74.000000
4.520124 75.000000
4.522188 75.000000
4.524252 75.000000
4.526316 75.000000
4.528380 75.000000
4.530444 75.000000
4.532508 75.000000
4.534572 74.000000
4.536636 74.000000
4.538700 74.000000
4.540764 74.000000
4.542828 74.000000
4.544892 75.000000
4.546956 75.000000
4.549020 75.000000
4.551084 75.000000
4.553148 75.000000
4.555212 75.000000
4.557276 75.000000
4.559340 75.000000
4.561404 75.000000
4.563467 75.000000
4.565531 74.000000
4.567595 74.000000
4.569659 74.000000
4.571723 74.000000
4.573787 74.000000
4.575851 74.000000
4.577915 74.000000
4.579979 74.000000
4.582043 74.000000
4.584107 75.000000
4.586171 75.000000
4.588235 75.000000
4.590299 75.000000
4.592363 75.000000
4.594427 75.000000
4.596491 75.000000
4.598555 75.000000
4.600619 75.000000
4.602683 75.000000
4.604747 75.000000
4.606811 75.000000
4.608875 75.000000
4.610939 75.000000
4.613003 75.000000
4.615067 75.000000
4.617131 75.000000
4.619195 75.000000
4.621259 75.000000
4.623323 75.000000
4.625387 75.000000
4.627451 75.000000
4.629515 75.000000
4.631579 75.000000
4.633643 75.000000
4.635707 75.000000
4.637771 75.000000
4.639835 75.000000
4.641899 75.000000
4.643963 75.000000
4.646027 74.000000
4.648091 74.000000
4.650155 74.000000
4.652219 74.000000
4.654283 74.000000
4.656347 74.000000
4.658411 74.000000
4.660475 74.000000
4.662539 74.000000
4.664603 74.000000
4.666667 75.000000
4.668731 75.000000
4.670795 75.000000
4.672859 75.000000
4.674923 75.000000
4.676987 75.000000
4.679051 75.000000
4.681115 75.000000
4.683179 75.000000
4.685243 74.000000
4.687307 74.000000
4.689370 74.000000
4.691434 74.000000
4.693498 74.000000
4.695562 74.000000
4.697626 74.000000
4.699690 74.000000
4.701754 74.000000
4.703818 74.000000
4.705882 74.000000
4.707946 74.000000
4.710010 74.000000
4.712074 74.000000
4.714138 74.000000
4.716202 74.000000
4.718266 74.000000
4.720330 74.000000
4.722394 74.000000
4.724458 74.000000
4.726522 74.000000
4.728586 74.000000
4.730650 74.000000
4.732714 74.000000
4.734778 74.000000
4.736842 75.000000
4.738906 75.000000
4.740970 75.000000
4.743034 75.000000
4.745098 75.000000
4.747162 75.000000
4.749226 75.000000
4.751290 75.000000
4.753354 75.000000
4.755418 75.000000
4.757482 74.000000
4.759546 74.000000
4.761610 74.000000
4.763674 74.000000
4.765738 74.000000
4.767802 74.000000
4.769866 74.000000
4.771930 74.000000
4.773994 74.000000
4.776058 75.000000
4.778122 75.000000
4.780186 75.000000
4.782250 75.000000
4.784314 75.000000
4.786378 75.000000
4.788442 75.000000
4.790506 75.000000
4.792570 74.000000
4.794634 74.000000
4.796698 74.000000
4.798762 74.000000
4.800826 74.000000
4.802890 75.000000
4.804954 75.000000
4.807018 75.000000
4.809082 75.000000
4.811146 75.000000
4.813209 75.000000
4.815273 75.000000
4.817337 75.000000
4.819401 75.000000
4.821465 75.000000
4.823529 75.000000
4.825593 75.000000
4.827657 75.000000
4.829721 75.000000
4.831785 75.000000
4.833849 75.000000
4.835913 75.000000
4.837977 75.000000
4.840041 75.000000
4.842105 75.000000
4.844169 75.000000
4.846233 75.000000
4.848297 74.000000
4.850361 74.000000
4.852425 74.000000
4.854489 74.000000
4.856553 74.000000
4.858617 75.000000
4.860681 75.000000
4.862745 75.000000
4.864809 75.000000
4.866873 75.000000
4.868937 75.000000
4.871001 75.000000
4.873065 75.000000
4.875129 75.000000
4.877193 74.000000
4.879257 74.000000
4.881321 74.000000
4.883385 74.000000
4.885449 74.000000
4.887513 74.000000
4.889577 74.000000
4.891641 74.000000
4.893705 74.000000
4.895769 74.000000
4.897833 74.000000
4.899897 74.000000
4.901961 74.000000
4.904025 74.000000
4.906089 74.000000
4.908153 74.000000
4.910217 74.000000
4.912281 74.000000
4.914345 74.000000
4.916409 74.000000
4.918473 74.000000
4.920537 74.000000
4.922601 74.000000
4.924665 74.000000
4.926729 74.000000
4.928793 74.000000
4.930857 74.000000
4.932921 74.000000
4.934985 74.000000
4.937049 74.000000
4.939112 74.000000
4.941176 74.000000
4.943240 74.000000
4.945304 74.000000
4.947368 74.000000
4.949432 74.000000
4.951496 74.000000
4.953560 74.000000
4.955624 74.000000
4.957688 74.000000
4.959752 75.000000
4.961816 75.000000
4.963880 75.000000
4.965944 75.000000
4.968008 75.000000
4.970072 75.000000
4.972136 75.000000
4.974200 75.000000
4.976264 75.000000
4.978328 74.000000
4.980392 74.000000
4.982456 74.000000
4.984520 74.000000
4.986584 74.000000
4.988648 74.000000
4.990712 74.000000
4.992776 74.000000
4.994840 74.000000
4.996904 74.000000
4.998968 74.000000
5.001032 74.000000
5.003096 74.000000
5.005160 74.000000
5.007224 74.000000
5.009288 74.000000
5.011352 74.000000
5.013416 74.000000
5.015480 74.000000
5.017544 74.000000
5.019608 74.000000
5.021672 74.000000
5.023736 74.000000
5.025800 74.000000
5.027864 74.000000
5.029928 74.000000
5.031992 74.000000
5.034056 74.000000
5.036120 74.000000
5.038184 74.000000
5.040248 74.000000
5.042312 74.000000
5.044376 74.000000
5.046440 74.000000
5.048504 74.000000
5.050568 75.000000
5.052632 75.000000
5.054696 75.000000
5.056760 75.000000
5.058824 75.000000
5.060888 75.000000
5.062951 75.000000
5.065015 75.000000
5.067079 75.000000
5.069143 74.000000
5.071207 74.000000
5.073271 74.000000
5.075335 74.000000
5.077399 74.000000
5.079463 75.000000
5.081527 75.000000
5.083591 75.000000
5.085655 75.000000
5.087719 75.000000
5.089783 75.000000
5.091847 75.000000
5.093911 75.000000
5.095975 75.000000
5.098039 75.000000
5.100103 75.000000
5.102167 75.000000
5.104231 75.000000
5.106295 75.000000
5.108359 75.000000
5.110423 75.000000
5.112487 75.000000
5.114551 75.000000
5.116615 75.000000
5.118679 75.000000
5.120743 74.000000
5.122807 74.000000
5.124871 74.000000
5.126935 74.000000
5.128999 74.000000
5.131063 74.000000
5.133127 74.000000
5.135191 74.000000
5.137255 74.000000
5.139319 74.000000
5.141383 74.000000
5.143447 74.000000
5.145511 74.000000
5.147575 74.000000
5.149639 74.000000
5.151703 74.000000
5.153767 74.000000
5.155831 74.000000
5.157895 74.000000
5.159959 74.000000
5.162023 74.000000
5.164087 74.000000
5.166151 74.000000
5.168215 74.000000
5.170279 74.000000
5.172343 74.000000
5.174407 74.000000
5.176471 74.000000
5.178535 74.000000
5.180599 74.000000
5.182663 74.000000
5.184727 74.000000
5.186791 74.000000
5.188854 74.000000
5.190918 74.000000
5.192982 74.000000
5.195046 74.000000
5.197110 74.000000
5.199174 74.000000
5.201238 74.000000
5.203302 74.000000
5.205366 74.000000
5.207430 74.000000
5.209494 74.000000
5.211558 74.000000
5.213622 74.000000
5.215686 74.000000
5.217750 74.000000
5.219814 74.000000
5.221878 74.000000
5.223942 74.000000
5.226006 74.000000
5.228070 74.000000
5.230134 74.000000
5.232198 75.000000
5.234262 75.000000
5.236326 75.000000
5.238390 75.000000
5.240454 75.000000
5.242518 75.000000
5.244582 75.000000
5.246646 75.000000
5.248710 75.000000
5.250774 74.000000
5.252838 74.000000
5.254902 74.000000
5.256966 74.000000
5.259030 74.000000
5.261094 75.000000
5.263158 75.000000
5.265222 75.000000
5.267286 75.000000
5.269350 75.000000
5.271414 75.000000
5.273478 75.000000
5.275542 75.000000
5.277606 75.000000
5.279670 75.000000
5.281734 74.000000
5.283798 74.000000
5.285862 74.000000
5.287926 74.000000
5.289990 74.000000
5.292054 74.000000
5.294118 74.000000
5.296182 74.000000
5.298246 74.000000
5.300310 74.000000
5.302374 74.000000
5.304438 74.000000
5.306502 74.000000
5.308566 74.000000
5.310630 74.000000
5.312693 74.000000
5.314757 74.000000
5.316821 74.000000
5.318885 74.000000
5.320949 74.000000
5.323013 74.000000
5.325077 74.000000
5.327141 74.000000
5.329205 74.000000
5.331269 74.000000
5.333333 74.000000
5.335397 74.000000
5.337461 74.000000
5.339525 74.000000
5.341589 74.000000
5.343653 74.000000
5.345717 74.000000
5.347781 74.000000
5.349845 74.000000
5.351909 74.000000
5.353973 74.000000
5.356037 74.000000
5.358101 74.000000
5.360165 74.000000
5.362229 74.000000
5.364293 74.000000
5.366357 74.000000
5.368421 74.000000
5.370485 74.000000
5.372549 74.000000
5.374613 74.000000
5.376677 74.000000
5.378741 74.000000
5.380805 74.000000
5.382869 74.000000
5.384933 74.000000
5.386997 74.000000
5.389061 74.000000
5.391125 74.000000
5.393189 74.000000
5.395253 74.000000
5.397317 74.000000
5.399381 74.000000
5.401445 74.000000
5.403509 73.000000
5.405573 73.000000
5.407637 73.000000
5.409701 73.000000
5.411765 73.000000
5.413829 73.000000
5.415893 73.000000
5.417957 73.000000
5.420021 73.000000
5.422085 73.000000
5.424149 74.000000
5.426213 74.000000
5.428277 74.000000
5.430341 74.000000
5.432405 74.000000
5.434469 74.000000
5.436533 74.000000
5.438596 74.000000
5.440660 74.000000
5.442724 74.000000
5.444788 74.000000
5.446852 74.000000
5.448916 74.000000
5.450980 74.000000
5.453044 74.000000
5.455108 74.000000
5.457172 74.000000
5.459236 74.000000
5.461300 74.000000
5.463364 74.000000
5.465428 74.000000
5.467492 74.000000
5.469556 74.000000
5.471620 74.000000
5.473684 74.000000
5.475748 74.000000
5.477812 74.000000
5.479876 74.000000
5.481940 74.000000
5.484004 74.000000
5.486068 74.000000
5.488132 74.000000
5.490196 74.000000
5.492260 74.000000
5.494324 74.000000
5.496388 74.000000
5.498452 74.000000
5.500516 74.000000
5.502580 74.000000
5.504644 74.000000
5.506708 74.000000
5.508772 74.000000
5.510836 74.000000
5.512900 74.000000
5.514964 74.000000
5.517028 74.000000
5.519092 74.000000
5.521156 74.000000
5.523220 74.000000
5.525284 74.000000
5.527348 74.000000
5.529412 74.000000
5.531476 74.000000
5.533540 74.000000
5.535604 74.000000
5.537668 74.000000
5.539732 74.000000
5.541796 74.000000
5.543860 74.000000
5.545924 74.000000
5.547988 74.000000
5.550052 74.000000
5.552116 74.000000
5.554180 74.000000
5.556244 74.000000
5.558308 74.000000
5.560372 74.000000
5.562436 74.000000
5.564499 74.000000
5.566563 74.000000
5.568627 74.000000
5.570691 74.000000
5.572755 74.000000
5.574819 75.000000
5.576883 75.000000
5.578947 75.000000
5.581011 75.000000
5.583075 75.000000
5.585139 75.000000
5.587203 75.000000
5.589267 75.000000
5.591331 74.000000
5.593395 74.000000
5.595459 74.000000
5.597523 74.000000
5.599587 74.000000
5.601651 74.000000
5.603715 74.000000
5.605779 74.000000
5.607843 74.000000
5.609907 74.000000
5.611971 74.000000
5.614035 74.000000
5.616099 73.000000
5.618163 72.000000
5.620227 74.000000
5.622291 74.000000
5.624355 74.000000
5.626419 74.000000
5.628483 74.000000
5.630547 74.000000
5.632611 74.000000
5.634675 74.000000
5.636739 74.000000
5.638803 75.000000
5.640867 75.000000
5.642931 75.000000
5.644995 75.000000
5.647059 75.000000
5.649123 75.000000
5.651187 75.000000
5.653251 74.000000
5.655315 74.000000
5.657379 74.000000
5.659443 74.000000
5.661507 74.000000
5.663571 74.000000
5.665635 74.000000
5.667699 74.000000
5.669763 74.000000
5.671827 74.000000
5.673891 75.000000
5.675955 75.000000
5.678019 75.000000
5.680083 75.000000
5.682147 75.000000
5.684211 75.000000
5.686275 75.000000
5.688338 75.000000
5.690402 75.000000
5.692466 75.000000
5.694530 74.000000
5.696594 74.000000
5.698658 74.000000
5.700722 74.000000
5.702786 74.000000
5.704850 74.000000
5.706914 74.000000
5.708978 74.000000
5.711042 74.000000
5.713106 74.000000
5.715170 74.000000
5.717234 74.000000
5.719298 74.000000
5.721362 74.000000
5.723426 74.000000
5.725490 74.000000
5.727554 74.000000
5.729618 74.000000
5.731682 74.000000
5.733746 74.000000
5.735810 74.000000
5.737874 74.000000
5.739938 74.000000
5.742002 74.000000
5.744066 74.000000
5.746130 74.000000
5.748194 74.000000
5.750258 74.000000
5.752322 74.000000
5.754386 74.000000
5.756450 74.000000
5.758514 74.000000
5.760578 74.000000
5.762642 74.000000
5.764706 74.000000
5.766770 74.000000
5.768834 74.000000
5.770898 74.000000
5.772962 74.000000
5.775026 74.000000
5.777090 74.000000
5.779154 74.000000
5.781218 74.000000
5.783282 74.000000
5.785346 74.000000
5.787410 74.000000
5.789474 74.000000
5.791538 74.000000
5.793602 74.000000
5.795666 74.000000
5.797730 74.000000
5.799794 74.000000
5.801858 74.000000
5.803922 74.000000
5.805986 74.000000
5.808050 74.000000
5.810114 74.000000
5.812178 74.000000
5.814241 74.000000
5.816305 74.000000
5.818369 74.000000
5.820433 74.000000
5.822497 74.000000
5.824561 75.000000
5.826625 75.000000
5.828689 75.000000
5.830753 75.000000
5.832817 75.000000
5.834881 75.000000
5.836945 75.000000
5.839009 75.000000
5.841073 75.000000
5.843137 75.000000
5.845201 75.000000
5.847265 75.000000
5.849329 75.000000
5.851393 75.000000
5.853457 75.000000
5.855521 74.000000
5.857585 74.000000
5.859649 74.000000
5.861713 74.000000
5.863777 74.000000
5.865841 74.000000
5.867905 74.000000
5.869969 74.000000
5.872033 74.000000
5.874097 74.000000
5.876161 75.000000
5.878225 75.000000
5.880289 75.000000
5.882353 75.000000
5.884417 75.000000
5.886481 75.000000
5.888545 75.000000
5.890609 75.000000
5.892673 75.000000
5.894737 74.000000
5.896801 74.000000
5.898865 74.000000
5.900929 74.000000
5.902993 74.000000
5.905057 75.000000
5.907121 75.000000
5.909185 75.000000
5.911249 75.000000
5.913313 75.000000
5.915377 75.000000
5.917441 75.000000
5.919505 75.000000
5.921569 75.000000
5.923633 75.000000
5.925697 74.000000
5.927761 74.000000
5.929825 74.000000
5.931889 74.000000
5.933953 74.000000
5.936017 74.000000
5.938080 74.000000
5.940144 74.000000
5.942208 74.000000
5.944272 74.000000
5.946336 73.000000
5.948400 73.000000
5.950464 73.000000
5.952528 73.000000
5.954592 73.000000
5.956656 74.000000
5.958720 74.000000
5.960784 74.000000
5.962848 74.000000
5.964912 74.000000
5.966976 74.000000
5.969040 74.000000
5.971104 74.000000
5.973168 74.000000
5.975232 74.000000
5.977296 74.000000
5.979360 74.000000
5.981424 74.000000
5.983488 74.000000
5.985552 74.000000
5.987616 74.000000
5.989680 74.000000
5.991744 74.000000
5.993808 74.000000
5.995872 74.000000
5.997936 74.000000
6.000000 74.000000
6.002064 74.000000
6.004128 74.000000
6.006192 74.000000
6.008256 74.000000
6.010320 74.000000
6.012384 74.000000
6.014448 74.000000
6.016512 74.000000
6.018576 74.000000
6.020640 74.000000
6.022704 74.000000
6.024768 74.000000
6.026832 74.000000
6.028896 74.000000
6.030960 74.000000
6.033024 74.000000
6.035088 74.000000
6.037152 74.000000
6.039216 74.000000
6.041280 74.000000
6.043344 74.000000
6.045408 74.000000
6.047472 74.000000
6.049536 74.000000
6.051600 74.000000
6.053664 74.000000
6.055728 74.000000
6.057792 74.000000
6.059856 74.000000
6.061920 74.000000
6.063983 74.000000
6.066047 74.000000
6.068111 74.000000
6.070175 74.000000
6.072239 74.000000
6.074303 74.000000
6.076367 74.000000
6.078431 74.000000
6.080495 74.000000
6.082559 74.000000
6.084623 74.000000
6.086687 74.000000
6.088751 74.000000
6.090815 74.000000
6.092879 74.000000
6.094943 74.000000
6.097007 74.000000
6.099071 74.000000
6.101135 74.000000
6.103199 74.000000
6.105263 74.000000
6.107327 74.000000
6.109391 74.000000
6.111455 74.000000
6.113519 74.000000
6.115583 74.000000
6.117647 75.000000
6.119711 75.000000
6.121775 75.000000
6.123839 75.000000
6.125903 75.000000
6.127967 75.000000
6.130031 75.000000
6.132095 75.000000
6.134159 74.000000
6.136223 74.000000
6.138287 74.000000
6.140351 74.000000
6.142415 74.000000
6.144479 74.000000
6.146543 74.000000
6.148607 74.000000
6.150671 74.000000
6.152735 74.000000
6.154799 74.000000
6.156863 74.000000
6.158927 74.000000
6.160991 74.000000
6.163055 74.000000
6.165119 74.000000
6.167183 74.000000
6.169247 74.000000
6.171311 74.000000
6.173375 74.000000
6.175439 74.000000
6.177503 74.000000
6.179567 74.000000
6.181631 74.000000
6.183695 74.000000
6.185759 74.000000
6.187822 73.000000
6.189886 73.000000
6.191950 73.000000
6.194014 73.000000
6.196078 73.000000
6.198142 73.000000
6.200206 73.000000
6.202270 73.000000
6.204334 73.000000
6.206398 73.000000
6.208462 73.000000
6.210526 73.000000
6.212590 73.000000
6.214654 73.000000
6.216718 73.000000
6.218782 74.000000
6.220846 74.000000
6.222910 74.000000
6.224974 74.000000
6.227038 74.000000
6.229102 74.000000
6.231166 74.000000
6.233230 74.000000
6.235294 74.000000
6.237358 74.000000
6.239422 74.000000
6.241486 74.000000
6.243550 74.000000
6.245614 74.000000
6.247678 74.000000
6.249742 74.000000
6.251806 74.000000
6.253870 74.000000
6.255934 74.000000
6.257998 74.000000
6.260062 74.000000
6.262126 74.000000
6.264190 74.000000
6.266254 74.000000
6.268318 73.000000
6.270382 73.000000
6.272446 73.000000
6.274510 73.000000
6.276574 73.000000
6.278638 73.000000
6.280702 73.000000
6.282766 73.000000
6.284830 73.000000
6.286894 73.000000
6.288958 74.000000
6.291022 74.000000
6.293086 74.000000
6.295150 74.000000
6.297214 74.000000
6.299278 74.000000
6.301342 74.000000
6.303406 74.000000
6.305470 74.000000
6.307534 74.000000
6.309598 74.000000
6.311662 74.000000
6.313725 74.000000
6.315789 74.000000
6.317853 74.000000
6.319917 74.000000
6.321981 74.000000
6.324045 74.000000
6.326109 74.000000
6.328173 74.000000
6.330237 74.000000
6.332301 74.000000
6.334365 74.000000
6.336429 74.000000
6.338493 74.000000
6.340557 74.000000
6.342621 74.000000
6.344685 74.000000
6.346749 74.000000
6.348813 74.000000
6.350877 74.000000
6.352941 74.000000
6.355005 74.000000
6.357069 74.000000
6.359133 74.000000
6.361197 73.000000
6.363261 73.000000
6.365325 73.000000
6.367389 73.000000
6.369453 73.000000
6.371517 73.000000
6.373581 73.000000
6.375645 73.000000
6.377709 73.000000
6.379773 74.000000
6.381837 74.000000
6.383901 74.000000
6.385965 74.000000
6.388029 74.000000
6.390093 74.000000
6.392157 74.000000
6.394221 74.000000
6.396285 74.000000
6.398349 74.000000
6.400413 73.000000
6.402477 73.000000
6.404541 73.000000
6.406605 73.000000
6.408669 73.000000
6.410733 73.000000
6.412797 73.000000
6.414861 73.000000
6.416925 73.000000
6.418989 73.000000
6.421053 74.000000
6.423117 74.000000
6.425181 74.000000
6.427245 74.000000
6.429309 74.000000
6.431373 74.000000
6.433437 74.000000
6.435501 74.000000
6.437564 74.000000
6.439628 74.000000
6.441692 74.000000
6.443756 74.000000
6.445820 74.000000
6.447884 74.000000
6.449948 74.000000
6.452012 74.000000
6.454076 74.000000
6.456140 74.000000
6.458204 74.000000
6.460268 73.000000
6.462332 73.000000
6.464396 73.000000
6.466460 73.000000
6.468524 73.000000
6.470588 74.000000
6.472652 74.000000
6.474716 74.000000
6.476780 74.000000
6.478844 74.000000
6.480908 74.000000
6.482972 74.000000
6.485036 74.000000
6.487100 74.000000
6.489164 74.000000
6.491228 74.000000
6.493292 74.000000
6.495356 74.000000
6.497420 74.000000
6.499484 74.000000
6.501548 74.000000
6.503612 74.000000
6.505676 74.000000
6.507740 74.000000
6.509804 74.000000
6.511868 74.000000
6.513932 74.000000
6.515996 74.000000
6.518060 74.000000
6.520124 74.000000
6.522188 73.000000
6.524252 73.000000
6.526316 73.000000
6.528380 73.000000
6.530444 73.000000
6.532508 74.000000
6.534572 74.000000
6.536636 74.000000
6.538700 74.000000
6.540764 74.000000
6.542828 74.000000
6.544892 74.000000
6.546956 74.000000
6.549020 74.000000
6.551084 74.000000
6.553148 74.000000
6.555212 74.000000
6.557276 74.000000
6.559340 74.000000
6.561404 74.000000
6.563467 74.000000
6.565531 74.000000
6.567595 74.000000
6.569659 74.000000
6.571723 74.000000
6.573787 74.000000
6.575851 74.000000
6.577915 74.000000
6.579979 74.000000
6.582043 74.000000
6.584107 74.000000
6.586171 74.000000
6.588235 74.000000
6.590299 74.000000
6.592363 74.000000
6.594427 74.000000
6.596491 74.000000
6.598555 74.000000
6.600619 74.000000
6.602683 74.000000
6.604747 74.000000
6.606811 74.000000
6.608875 74.000000
6.610939 74.000000
6.613003 74.000000
6.615067 74.000000
6.617131 74.000000
6.619195 74.000000
6.621259 74.000000
6.623323 73.000000
6.625387 73.000000
6.627451 73.000000
6.629515 73.000000
6.631579 73.000000
6.633643 73.000000
6.635707 73.000000
6.637771 73.000000
6.639835 73.000000
6.641899 73.000000
6.643963 74.000000
6.646027 74.000000
6.648091 74.000000
6.650155 74.000000
6.652219 74.000000
6.654283 74.000000
6.656347 74.000000
6.658411 74.000000
6.660475 74.000000
6.662539 74.000000
6.664603 74.000000
6.666667 74.000000
6.668731 74.000000
6.670795 74.000000
6.672859 74.000000
6.674923 74.000000
6.676987 74.000000
6.679051 74.000000
6.681115 74.000000
6.683179 74.000000
6.685243 74.000000
6.687307 74.000000
6.689370 74.000000
6.691434 74.000000
6.693498 73.000000
6.695562 73.000000
6.697626 73.000000
6.699690 73.000000
6.701754 73.000000
6.703818 74.000000
6.705882 74.000000
6.707946 74.000000
6.710010 74.000000
6.712074 74.000000
6.714138 74.000000
6.716202 74.000000
6.718266 74.000000
6.720330 74.000000
6.722394 74.000000
6.724458 74.000000
6.726522 74.000000
6.728586 74.000000
6.730650 74.000000
6.732714 74.000000
6.734778 73.000000
6.736842 73.000000
6.738906 73.000000
6.740970 73.000000
6.743034 74.000000
6.745098 74.000000
6.747162 74.000000
6.749226 74.000000
6.751290 74.000000
6.753354 74.000000
6.755418 74.000000
6.757482 74.000000
6.759546 74.000000
6.761610 74.000000
6.763674 74.000000
6.765738 74.000000
6.767802 74.000000
6.769866 74.000000
6.771930 74.000000
6.773994 74.000000
6.776058 74.000000
6.778122 74.000000
6.780186 74.000000
6.782250 74.000000
6.784314 73.000000
6.786378 73.000000
6.788442 73.000000
6.790506 73.000000
6.792570 73.000000
6.794634 73.000000
6.796698 73.000000
6.798762 73.000000
6.800826 73.000000
6.802890 73.000000
6.804954 73.000000
6.807018 73.000000
6.809082 73.000000
6.811146 73.000000
6.813209 73.000000
6.815273 73.000000
6.817337 73.000000
6.819401 73.000000
6.821465 73.000000
6.823529 73.000000
6.825593 74.000000
6.827657 74.000000
6.829721 74.000000
6.831785 74.000000
6.833849 74.000000
6.835913 74.000000
6.837977 74.000000
6.840041 74.000000
6.842105 74.000000
6.844169 74.000000
6.846233 74.000000
6.848297 74.000000
6.850361 74.000000
6.852425 74.000000
6.854489 74.000000
6.856553 74.000000
6.858617 74.000000
6.860681 74.000000
6.862745 74.000000
6.864809 73.000000
6.866873 73.000000
6.868937 73.000000
6.871001 73.000000
6.873065 73.000000
6.875129 73.000000
6.877193 73.000000
6.879257 73.000000
6.881321 73.000000
6.883385 73.000000
6.885449 74.000000
6.887513 74.000000
6.889577 74.000000
6.891641 74.000000
6.893705 74.000000
6.895769 74.000000
6.897833 74.000000
6.899897 74.000000
6.901961 74.000000
6.904025 74.000000
6.906089 73.000000
6.908153 73.000000
6.910217 73.000000
6.912281 73.000000
6.914345 73.000000
6.916409 73.000000
6.918473 73.000000
6.920537 73.000000
6.922601 73.000000
6.924665 73.000000
6.926729 73.000000
6.928793 73.000000
6.930857 73.000000
6.932921 73.000000
6.934985 73.000000
6.937049 73.000000
6.939112 73.000000
6.941176 73.000000
6.943240 73.000000
6.945304 74.000000
6.947368 74.000000
6.949432 74.000000
6.951496 74.000000
6.953560 74.000000
6.955624 74.000000
6.957688 74.000000
6.959752 74.000000
6.961816 74.000000
6.963880 74.000000
6.965944 73.000000
6.968008 73.000000
6.970072 73.000000
6.972136 73.000000
6.974200 73.000000
6.976264 73.000000
6.978328 73.000000
6.980392 73.000000
6.982456 73.000000
6.984520 73.000000
6.986584 73.000000
6.988648 73.000000
6.990712 73.000000
6.992776 73.000000
6.994840 73.000000
6.996904 74.000000
6.998968 74.000000
7.001032 74.000000
7.003096 74.000000
7.005160 74.000000
7.007224 74.000000
7.009288 74.000000
7.011352 74.000000
7.013416 74.000000
7.015480 74.000000
7.017544 74.000000
7.019608 74.000000
7.021672 74.000000
7.023736 74.000000
7.025800 74.000000
7.027864 74.000000
7.029928 74.000000
7.031992 74.000000
7.034056 74.000000
7.036120 74.000000
7.038184 74.000000
7.040248 74.000000
7.042312 74.000000
7.044376 74.000000
7.046440 73.000000
7.048504 73.000000
7.050568 73.000000
7.052632 73.000000
7.054696 73.000000
7.056760 74.000000
7.058824 74.000000
7.060888 74.000000
7.062951 74.000000
7.065015 74.000000
7.067079 74.000000
7.069143 74.000000
7.071207 74.000000
7.073271 74.000000
7.075335 74.000000
7.077399 74.000000
7.079463 74.000000
7.081527 74.000000
7.083591 74.000000
7.085655 74.000000
7.087719 73.000000
7.089783 73.000000
7.091847 73.000000
7.093911 73.000000
7.095975 73.000000
7.098039 73.000000
7.100103 73.000000
7.102167 73.000000
7.104231 73.000000
7.106295 73.000000
7.108359 73.000000
7.110423 73.000000
7.112487 73.000000
7.114551 73.000000
7.116615 73.000000
7.118679 73.000000
7.120743 73.000000
7.122807 73.000000
7.124871 73.000000
7.126935 73.000000
7.128999 73.000000
7.131063 73.000000
7.133127 73.000000
7.135191 73.000000
7.137255 73.000000
7.139319 73.000000
7.141383 73.000000
7.143447 73.000000
7.145511 73.000000
7.147575 73.000000
7.149639 73.000000
7.151703 73.000000
7.153767 73.000000
7.155831 73.000000
7.157895 74.000000
7.159959 74.000000
7.162023 74.000000
7.164087 74.000000
7.166151 74.000000
7.168215 74.000000
7.170279 74.000000
7.172343 74.000000
7.174407 74.000000
7.176471 74.000000
7.178535 74.000000
7.180599 74.000000
7.182663 74.000000
7.184727 74.000000
7.186791 74.000000
7.188854 73.000000
7.190918 73.000000
7.192982 73.000000
7.195046 73.000000
7.197110 73.000000
7.199174 74.000000
7.201238 74.000000
7.203302 74.000000
7.205366 74.000000
7.207430 74.000000
7.209494 74.000000
7.211558 74.000000
7.213622 74.000000
7.215686 74.000000
7.217750 74.000000
7.219814 74.000000
7.221878 74.000000
7.223942 74.000000
7.226006 74.000000
7.228070 74.000000
7.230134 74.000000
7.232198 74.000000
7.234262 74.000000
7.236326 74.000000
7.238390 74.000000
7.240454 74.000000
7.242518 74.000000
7.244582 74.000000
7.246646 74.000000
7.248710 74.000000
7.250774 74.000000
7.252838 74.000000
7.254902 74.000000
7.256966 74.000000
7.259030 75.000000
7.261094 75.000000
7.263158 75.000000
7.265222 75.000000
7.267286 75.000000
7.269350 83.000000
7.271414 98.000000
7.273478 94.000000
7.275542 78.000000
7.277606 76.000000
7.279670 76.000000
7.281734 75.000000
7.283798 74.000000
7.285862 74.000000
7.287926 74.000000
7.289990 74.000000
7.292054 74.000000
7.294118 74.000000
7.296182 74.000000
7.298246 74.000000
7.300310 74.000000
7.302374 74.000000
7.304438 74.000000
7.306502 74.000000
7.308566 74.000000
7.310630 74.000000
7.312693 74.000000
7.314757 74.000000
7.316821 74.000000
7.318885 74.000000
7.320949 74.000000
7.323013 74.000000
7.325077 74.000000
7.327141 74.000000
7.329205 74.000000
7.331269 74.000000
7.333333 74.000000
7.335397 74.000000
7.337461 74.000000
7.339525 74.000000
7.341589 74.000000
7.343653 74.000000
7.345717 74.000000
7.347781 74.000000
7.349845 74.000000
7.351909 74.000000
7.353973 74.000000
7.356037 73.000000
7.358101 73.000000
7.360165 73.000000
7.362229 73.000000
7.364293 73.000000
7.366357 73.000000
7.368421 73.000000
7.370485 73.000000
7.372549 73.000000
7.374613 74.000000
7.376677 74.000000
7.378741 74.000000
7.380805 74.000000
7.382869 74.000000
7.384933 74.000000
7.386997 74.000000
7.389061 74.000000
7.391125 74.000000
7.393189 74.000000
7.395253 73.000000
7.397317 73.000000
7.399381 73.000000
7.401445 73.000000
7.403509 73.000000
7.405573 73.000000
7.407637 73.000000
7.409701 73.000000
7.411765 73.000000
7.413829 73.000000
7.415893 73.000000
7.417957 73.000000
7.420021 73.000000
7.422085 73.000000
7.424149 73.000000
7.426213 73.000000
7.428277 73.000000
7.430341 73.000000
7.432405 73.000000
7.434469 73.000000
7.436533 73.000000
7.438596 73.000000
7.440660 73.000000
7.442724 73.000000
7.444788 73.000000
7.446852 74.000000
7.448916 74.000000
7.450980 74.000000
7.453044 74.000000
7.455108 74.000000
7.457172 74.000000
7.459236 74.000000
7.461300 74.000000
7.463364 74.000000
7.465428 74.000000
7.467492 74.000000
7.469556 74.000000
7.471620 74.000000
7.473684 74.000000
7.475748 73.000000
7.477812 73.000000
7.479876 73.000000
7.481940 73.000000
7.484004 73.000000
7.486068 73.000000
7.488132 73.000000
7.490196 73.000000
7.492260 73.000000
7.494324 73.000000
7.496388 73.000000
7.498452 73.000000
7.500516 73.000000
7.502580 73.000000
7.504644 73.000000
7.506708 73.000000
7.508772 73.000000
7.510836 73.000000
7.512900 73.000000
7.514964 73.000000
7.517028 73.000000
7.519092 73.000000
7.521156 73.000000
7.523220 73.000000
7.525284 73.000000
7.527348 73.000000
7.529412 73.000000
7.531476 73.000000
7.533540 73.000000
7.535604 73.000000
7.537668 73.000000
7.539732 73.000000
7.541796 73.000000
7.543860 73.000000
7.545924 73.000000
7.547988 74.000000
7.550052 74.000000
7.552116 74.000000
7.554180 74.000000
7.556244 74.000000
7.558308 74.000000
7.560372 74.000000
7.562436 74.000000
7.564499 74.000000
7.566563 74.000000
7.568627 74.000000
7.570691 74.000000
7.572755 74.000000
7.574819 74.000000
7.576883 74.000000
7.578947 74.000000
7.581011 74.000000
7.583075 74.000000
7.585139 74.000000
7.587203 73.000000
7.589267 73.000000
7.591331 73.000000
7.593395 73.000000
7.595459 73.000000
7.597523 73.000000
7.599587 73.000000
7.601651 73.000000
7.603715 73.000000
7.605779 73.000000
7.607843 74.000000
7.609907 74.000000
7.611971 74.000000
7.614035 74.000000
7.616099 74.000000
7.618163 74.000000
7.620227 74.000000
7.622291 74.000000
7.624355 74.000000
7.626419 74.000000
7.628483 74.000000
7.630547 74.000000
7.632611 74.000000
7.634675 74.000000
7.636739 74.000000
7.638803 74.000000
7.640867 74.000000
7.642931 74.000000
7.644995 74.000000
7.647059 73.000000
7.649123 73.000000
7.651187 73.000000
7.653251 73.000000
7.655315 73.000000
7.657379 73.000000
7.659443 73.000000
7.661507 73.000000
7.663571 73.000000
7.665635 73.000000
7.667699 74.000000
7.669763 74.000000
7.671827 74.000000
7.673891 74.000000
7.675955 74.000000
7.678019 74.000000
7.680083 74.000000
7.682147 74.000000
7.684211 74.000000
7.686275 74.000000
7.688338 74.000000
7.690402 74.000000
7.692466 74.000000
7.694530 74.000000
7.696594 74.000000
7.698658 74.000000
7.700722 74.000000
7.702786 74.000000
7.704850 74.000000
7.706914 74.000000
7.708978 73.000000
7.711042 73.000000
7.713106 73.000000
7.715170 73.000000
7.717234 73.000000
7.719298 73.000000
7.721362 73.000000
7.723426 73.000000
7.725490 73.000000
7.727554 73.000000
7.729618 73.000000
7.731682 73.000000
7.733746 73.000000
7.735810 73.000000
7.737874 73.000000
7.739938 73.000000
7.742002 73.000000
7.744066 73.000000
7.746130 73.000000
7.748194 73.000000
7.750258 73.000000
7.752322 73.000000
7.754386 73.000000
7.756450 73.000000
7.758514 73.000000
7.760578 73.000000
7.762642 73.000000
7.764706 73.000000
7.766770 73.000000
7.768834 73.000000
7.770898 73.000000
7.772962 73.000000
7.775026 73.000000
7.777090 73.000000
7.779154 73.000000
7.781218 73.000000
7.783282 73.000000
7.785346 73.000000
7.787410 73.000000
7.789474 73.000000
7.791538 73.000000
7.793602 73.000000
7.795666 73.000000
7.797730 73.000000
7.799794 73.000000
7.801858 73.000000
7.803922 73.000000
7.805986 73.000000
7.808050 73.000000
7.810114 73.000000
7.812178 73.000000
7.814241 73.000000
7.816305 73.000000
7.818369 73.000000
7.820433 74.000000
7.822497 74.000000
7.824561 74.000000
7.826625 74.000000
7.828689 74.000000
7.830753 74.000000
7.832817 74.000000
7.834881 74.000000
7.836945 74.000000
7.839009 73.000000
7.841073 73.000000
7.843137 73.000000
7.845201 73.000000
7.847265 73.000000
7.849329 73.000000
7.851393 73.000000
7.853457 73.000000
7.855521 73.000000
7.857585 73.000000
7.859649 74.000000
7.861713 74.000000
7.863777 74.000000
7.865841 74.000000
7.867905 74.000000
7.869969 74.000000
7.872033 74.000000
7.874097 74.000000
7.876161 74.000000
7.878225 74.000000
7.880289 73.000000
7.882353 73.000000
7.884417 73.000000
7.886481 73.000000
7.888545 73.000000
7.890609 73.000000
7.892673 73.000000
7.894737 73.000000
7.896801 73.000000
7.898865 73.000000
7.900929 74.000000
7.902993 74.000000
7.905057 74.000000
7.907121 74.000000
7.909185 74.000000
7.911249 74.000000
7.913313 74.000000
7.915377 74.000000
7.917441 74.000000
7.919505 74.000000
7.921569 73.000000
7.923633 73.000000
7.925697 73.000000
7.927761 73.000000
7.929825 73.000000
7.931889 73.000000
7.933953 73.000000
7.936017 73.000000
7.938080 73.000000
7.940144 73.000000
7.942208 73.000000
7.944272 73.000000
7.946336 73.000000
7.948400 73.000000
7.950464 73.000000
7.952528 73.000000
7.954592 72.000000
7.956656 73.000000
7.958720 73.000000
7.960784 73.000000
7.962848 73.000000
7.964912 73.000000
7.966976 73.000000
7.969040 73.000000
7.971104 73.000000
7.973168 73.000000
7.975232 73.000000
7.977296 73.000000
7.979360 73.000000
7.981424 73.000000
7.983488 73.000000
7.985552 73.000000
7.987616 73.000000
7.989680 73.000000
7.991744 73.000000
7.993808 73.000000
7.995872 73.000000
7.997936 73.000000
8.000000 73.000000
8.002064 73.000000
8.004128 73.000000
8.006192 73.000000
8.008256 73.000000
8.010320 73.000000
8.012384 73.000000
8.014448 73.000000
8.016512 73.000000
8.018576 73.000000
8.020640 73.000000
8.022704 73.000000
8.024768 73.000000
8.026832 73.000000
8.028896 73.000000
8.030960 73.000000
8.033024 73.000000
8.035088 73.000000
8.037152 73.000000
8.039216 73.000000
8.041280 74.000000
8.043344 74.000000
8.045408 74.000000
8.047472 74.000000
8.049536 74.000000
8.051600 74.000000
8.053664 74.000000
8.055728 74.000000
8.057792 74.000000
8.059856 74.000000
8.061920 73.000000
8.063983 73.000000
8.066047 73.000000
8.068111 73.000000
8.070175 73.000000
8.072239 73.000000
8.074303 73.000000
8.076367 73.000000
8.078431 73.000000
8.080495 73.000000
8.082559 73.000000
8.084623 73.000000
8.086687 73.000000
8.088751 73.000000
8.090815 73.000000
8.092879 74.000000
8.094943 74.000000
8.097007 74.000000
8.099071 74.000000
8.101135 74.000000
8.103199 74.000000
8.105263 74.000000
8.107327 74.000000
8.109391 74.000000
8.111455 74.000000
8.113519 73.000000
8.115583 73.000000
8.117647 73.000000
8.119711 73.000000
8.121775 74.000000
8.123839 74.000000
8.125903 74.000000
8.127967 74.000000
8.130031 74.000000
8.132095 74.000000
8.134159 74.000000
8.136223 74.000000
8.138287 74.000000
8.140351 74.000000
8.142415 74.000000
8.144479 74.000000
8.146543 74.000000
8.148607 74.000000
8.150671 74.000000
8.152735 74.000000
8.154799 74.000000
8.156863 74.000000
8.158927 74.000000
8.160991 74.000000
8.163055 73.000000
8.165119 73.000000
8.167183 73.000000
8.169247 73.000000
8.171311 73.000000
8.173375 73.000000
8.175439 73.000000
8.177503 73.000000
8.179567 73.000000
8.181631 73.000000
8.183695 73.000000
8.185759 73.000000
8.187822 73.000000
8.189886 73.000000
8.191950 73.000000
8.194014 74.000000
8.196078 74.000000
8.198142 74.000000
8.200206 74.000000
8.202270 74.000000
8.204334 74.000000
8.206398 74.000000
8.208462 74.000000
8.210526 74.000000
8.212590 74.000000
8.214654 74.000000
8.216718 74.000000
8.218782 74.000000
8.220846 74.000000
8.222910 74.000000
8.224974 74.000000
8.227038 74.000000
8.229102 74.000000
8.231166 74.000000
8.233230 73.000000
8.235294 73.000000
8.237358 73.000000
8.239422 73.000000
8.241486 73.000000
8.243550 73.000000
8.245614 73.000000
8.247678 73.000000
8.249742 73.000000
8.251806 73.000000
8.253870 73.000000
8.255934 73.000000
8.257998 73.000000
8.260062 73.000000
8.262126 73.000000
8.264190 73.000000
8.266254 73.000000
8.268318 73.000000
8.270382 73.000000
8.272446 73.000000
8.274510 73.000000
8.276574 73.000000
8.278638 73.000000
8.280702 73.000000
8.282766 73.000000
8.284830 73.000000
8.286894 73.000000
8.288958 73.000000
8.291022 73.000000
8.293086 73.000000
8.295150 73.000000
8.297214 73.000000
8.299278 73.000000
8.301342 73.000000
8.303406 73.000000
8.305470 73.000000
8.307534 73.000000
8.309598 73.000000
8.311662 73.000000
8.313725 73.000000
8.315789 73.000000
8.317853 73.000000
8.319917 73.000000
8.321981 73.000000
8.324045 73.000000
8.326109 73.000000
8.328173 73.000000
8.330237 73.000000
8.332301 73.000000
8.334365 73.000000
8.336429 73.000000
8.338493 73.000000
8.340557 73.000000
8.342621 73.000000
8.344685 73.000000
8.346749 73.000000
8.348813 73.000000
8.350877 73.000000
8.352941 73.000000
8.355005 73.000000
8.357069 73.000000
8.359133 73.000000
8.361197 73.000000
8.363261 73.000000
8.365325 73.000000
8.367389 73.000000
8.369453 73.000000
8.371517 73.000000
8.373581 73.000000
8.375645 73.000000
8.377709 73.000000
8.379773 73.000000
8.381837 73.000000
8.383901 73.000000
8.385965 73.000000
8.388029 73.000000
8.390093 73.000000
8.392157 73.000000
8.394221 73.000000
8.396285 73.000000
8.398349 73.000000
8.400413 73.000000
8.402477 73.000000
8.404541 74.000000
8.406605 74.000000
8.408669 74.000000
8.410733 74.000000
8.412797 74.000000
8.414861 74.000000
8.416925 74.000000
8.418989 74.000000
8.421053 74.000000
8.423117 74.000000
8.425181 74.000000
8.427245 74.000000
8.429309 74.000000
8.431373 74.000000
8.433437 74.000000
8.435501 73.000000
8.437564 73.000000
8.439628 73.000000
8.441692 73.000000
8.443756 73.000000
8.445820 73.000000
8.447884 73.000000
8.449948 73.000000
8.452012 73.000000
8.454076 73.000000
8.456140 74.000000
8.458204 74.000000
8.460268 74.000000
8.462332 74.000000
8.464396 74.000000
8.466460 74.000000
8.468524 74.000000
8.470588 74.000000
8.472652 74.000000
8.474716 74.000000
8.476780 73.000000
8.478844 73.000000
8.480908 73.000000
8.482972 73.000000
8.485036 73.000000
8.487100 73.000000
8.489164 73.000000
8.491228 73.000000
8.493292 73.000000
8.495356 73.000000
8.497420 73.000000
8.499484 73.000000
8.501548 73.000000
8.503612 73.000000
8.505676 73.000000
8.507740 73.000000
8.509804 73.000000
8.511868 73.000000
8.513932 73.000000
8.515996 73.000000
8.518060 73.000000
8.520124 73.000000
8.522188 73.000000
8.524252 73.000000
8.526316 73.000000
8.528380 73.000000
8.530444 73.000000
8.532508 73.000000
8.534572 73.000000
8.536636 73.000000
8.538700 73.000000
8.540764 73.000000
8.542828 73.000000
8.544892 73.000000
8.546956 73.000000
8.549020 73.000000
8.551084 73.000000
8.553148 73.000000
8.555212 73.000000
8.557276 73.000000
8.559340 73.000000
8.561404 73.000000
8.563467 73.000000
8.565531 73.000000
8.567595 73.000000
8.569659 73.000000
8.571723 73.000000
8.573787 73.000000
8.575851 73.000000
8.577915 73.000000
8.579979 73.000000
8.582043 73.000000
8.584107 73.000000
8.586171 73.000000
8.588235 73.000000
8.590299 73.000000
8.592363 73.000000
8.594427 73.000000
8.596491 73.000000
8.598555 73.000000
8.600619 73.000000
8.602683 73.000000
8.604747 73.000000
8.606811 73.000000
8.608875 73.000000
8.610939 73.000000
8.613003 73.000000
8.615067 73.000000
8.617131 74.000000
8.619195 74.000000
8.621259 74.000000
8.623323 74.000000
8.625387 74.000000
8.627451 74.000000
8.629515 74.000000
8.631579 74.000000
8.633643 74.000000
8.635707 74.000000
8.637771 74.000000
8.639835 74.000000
8.641899 74.000000
8.643963 74.000000
8.646027 74.000000
8.648091 74.000000
8.650155 74.000000
8.652219 74.000000
8.654283 74.000000
8.656347 74.000000
8.658411 73.000000
8.660475 73.000000
8.662539 73.000000
8.664603 73.000000
8.666667 73.000000
8.668731 73.000000
8.670795 73.000000
8.672859 73.000000
8.674923 73.000000
8.676987 73.000000
8.679051 73.000000
8.681115 73.000000
8.683179 73.000000
8.685243 73.000000
8.687307 73.000000
8.689370 73.000000
8.691434 73.000000
8.693498 73.000000
8.695562 73.000000
8.697626 73.000000
8.699690 73.000000
8.701754 73.000000
8.703818 73.000000
8.705882 73.000000
8.707946 73.000000
8.710010 73.000000
8.712074 73.000000
8.714138 73.000000
8.716202 73.000000
8.718266 73.000000
8.720330 73.000000
8.722394 73.000000
8.724458 73.000000
8.726522 73.000000
8.728586 73.000000
8.730650 73.000000
8.732714 73.000000
8.734778 73.000000
8.736842 73.000000
8.738906 73.000000
8.740970 73.000000
8.743034 73.000000
8.745098 73.000000
8.747162 73.000000
8.749226 73.000000
8.751290 73.000000
8.753354 73.000000
8.755418 73.000000
8.757482 73.000000
8.759546 73.000000
8.761610 73.000000
8.763674 73.000000
8.765738 73.000000
8.767802 73.000000
8.769866 73.000000
8.771930 73.000000
8.773994 73.000000
8.776058 73.000000
8.778122 73.000000
8.780186 74.000000
8.782250 74.000000
8.784314 74.000000
8.786378 74.000000
8.788442 74.000000
8.790506 74.000000
8.792570 74.000000
8.794634 74.000000
8.796698 74.000000
8.798762 73.000000
8.800826 73.000000
8.802890 73.000000
8.804954 73.000000
8.807018 73.000000
8.809082 73.000000
8.811146 73.000000
8.813209 73.000000
8.815273 73.000000
8.817337 73.000000
8.819401 73.000000
8.821465 73.000000
8.823529 73.000000
8.825593 73.000000
8.827657 73.000000
8.829721 73.000000
8.831785 73.000000
8.833849 73.000000
8.835913 73.000000
8.837977 73.000000
8.840041 73.000000
8.842105 73.000000
8.844169 73.000000
8.846233 73.000000
8.848297 73.000000
8.850361 73.000000
8.852425 73.000000
8.854489 73.000000
8.856553 73.000000
8.858617 73.000000
8.860681 73.000000
8.862745 73.000000
8.864809 73.000000
8.866873 73.000000
8.868937 73.000000
8.871001 73.000000
8.873065 73.000000
8.875129 73.000000
8.877193 73.000000
8.879257 73.000000
8.881321 73.000000
8.883385 73.000000
8.885449 73.000000
8.887513 73.000000
8.889577 73.000000
8.891641 73.000000
8.893705 73.000000
8.895769 73.000000
8.897833 73.000000
8.899897 73.000000
8.901961 73.000000
8.904025 73.000000
8.906089 73.000000
8.908153 73.000000
8.910217 73.000000
8.912281 73.000000
8.914345 73.000000
8.916409 73.000000
8.918473 73.000000
8.920537 73.000000
8.922601 73.000000
8.924665 73.000000
8.926729 73.000000
8.928793 73.000000
8.930857 73.000000
8.932921 73.000000
8.934985 73.000000
8.937049 73.000000
8.939112 73.000000
8.941176 73.000000
8.943240 73.000000
8.945304 73.000000
8.947368 73.000000
8.949432 73.000000
8.951496 73.000000
8.953560 73.000000
8.955624 73.000000
8.957688 73.000000
8.959752 73.000000
8.961816 73.000000
8.963880 73.000000
8.965944 73.000000
8.968008 73.000000
8.970072 73.000000
8.972136 73.000000
8.974200 73.000000
8.976264 73.000000
8.978328 73.000000
8.980392 73.000000
8.982456 73.000000
8.984520 73.000000
8.986584 73.000000
8.988648 73.000000
8.990712 74.000000
8.992776 74.000000
8.994840 74.000000
8.996904 74.000000
8.998968 74.000000
9.001032 74.000000
9.003096 74.000000
9.005160 73.000000
9.007224 73.000000
9.009288 73.000000
9.011352 73.000000
9.013416 73.000000
9.015480 73.000000
9.017544 73.000000
9.019608 74.000000
9.021672 74.000000
9.023736 74.000000
9.025800 74.000000
9.027864 74.000000
9.029928 74.000000
9.031992 74.000000
9.034056 74.000000
9.036120 74.000000
9.038184 74.000000
9.040248 74.000000
9.042312 74.000000
9.044376 74.000000
9.046440 74.000000
9.048504 74.000000
9.050568 74.000000
9.052632 74.000000
9.054696 74.000000
9.056760 74.000000
9.058824 74.000000
9.060888 74.000000
9.062951 74.000000
9.065015 74.000000
9.067079 74.000000
9.069143 73.000000
9.071207 73.000000
9.073271 73.000000
9.075335 73.000000
9.077399 73.000000
9.079463 73.000000
9.081527 73.000000
9.083591 73.000000
9.085655 73.000000
9.087719 73.000000
9.089783 73.000000
9.091847 73.000000
9.093911 73.000000
9.095975 73.000000
9.098039 73.000000
9.100103 73.000000
9.102167 73.000000
9.104231 73.000000
9.106295 73.000000
9.108359 73.000000
9.110423 73.000000
9.112487 73.000000
9.114551 73.000000
9.116615 73.000000
9.118679 73.000000
9.120743 74.000000
9.122807 74.000000
9.124871 74.000000
9.126935 74.000000
9.128999 74.000000
9.131063 74.000000
9.133127 74.000000
9.135191 74.000000
9.137255 74.000000
9.139319 74.000000
9.141383 74.000000
9.143447 74.000000
9.145511 74.000000
9.147575 74.000000
9.149639 74.000000
9.151703 74.000000
9.153767 74.000000
9.155831 74.000000
9.157895 74.000000
9.159959 73.000000
9.162023 73.000000
9.164087 73.000000
9.166151 73.000000
9.168215 73.000000
9.170279 73.000000
9.172343 73.000000
9.174407 73.000000
9.176471 73.000000
9.178535 73.000000
9.180599 73.000000
9.182663 73.000000
9.184727 73.000000
9.186791 73.000000
9.188854 73.000000
9.190918 73.000000
9.192982 73.000000
9.195046 73.000000
9.197110 73.000000
9.199174 73.000000
9.201238 74.000000
9.203302 74.000000
9.205366 74.000000
9.207430 74.000000
9.209494 74.000000
9.211558 74.000000
9.213622 74.000000
9.215686 74.000000
9.217750 74.000000
9.219814 74.000000
9.221878 73.000000
9.223942 73.000000
9.226006 73.000000
9.228070 73.000000
9.230134 73.000000
9.232198 74.000000
9.234262 74.000000
9.236326 74.000000
9.238390 74.000000
9.240454 74.000000
9.242518 74.000000
9.244582 74.000000
9.246646 74.000000
9.248710 74.000000
9.250774 73.000000
9.252838 73.000000
9.254902 73.000000
9.256966 73.000000
9.259030 73.000000
9.261094 73.000000
9.263158 73.000000
9.265222 73.000000
9.267286 73.000000
9.269350 73.000000
9.271414 73.000000
9.273478 73.000000
9.275542 73.000000
9.277606 73.000000
9.279670 73.000000
9.281734 74.000000
9.283798 74.000000
9.285862 74.000000
9.287926 74.000000
9.289990 74.000000
9.292054 74.000000
9.294118 74.000000
9.296182 74.000000
9.298246 74.000000
9.300310 74.000000
9.302374 73.000000
9.304438 73.000000
9.306502 73.000000
9.308566 73.000000
9.310630 73.000000
9.312693 73.000000
9.314757 73.000000
9.316821 73.000000
9.318885 73.000000
9.320949 73.000000
9.323013 73.000000
9.325077 73.000000
9.327141 73.000000
9.329205 73.000000
9.331269 73.000000
9.333333 73.000000
9.335397 73.000000
9.337461 73.000000
9.339525 73.000000
9.341589 73.000000
9.343653 73.000000
9.345717 73.000000
9.347781 73.000000
9.349845 73.000000
9.351909 73.000000
9.353973 73.000000
9.356037 73.000000
9.358101 73.000000
9.360165 73.000000
9.362229 73.000000
9.364293 73.000000
9.366357 73.000000
9.368421 73.000000
9.370485 73.000000
9.372549 73.000000
9.374613 73.000000
9.376677 73.000000
9.378741 73.000000
9.380805 73.000000
9.382869 73.000000
9.384933 73.000000
9.386997 73.000000
9.389061 73.000000
9.391125 73.000000
9.393189 73.000000
9.395253 73.000000
9.397317 73.000000
9.399381 73.000000
9.401445 73.000000
9.403509 73.000000
9.405573 73.000000
9.407637 73.000000
9.409701 73.000000
9.411765 73.000000
9.413829 74.000000
9.415893 74.000000
9.417957 74.000000
9.420021 74.000000
9.422085 74.000000
9.424149 74.000000
9.426213 74.000000
9.428277 74.000000
9.430341 74.000000
9.432405 73.000000
9.434469 73.000000
9.436533 73.000000
9.438596 73.000000
9.440660 73.000000
9.442724 74.000000
9.444788 74.000000
9.446852 74.000000
9.448916 74.000000
9.450980 74.000000
9.453044 74.000000
9.455108 74.000000
9.457172 74.000000
9.459236 74.000000
9.461300 74.000000
9.463364 73.000000
9.465428 73.000000
9.467492 73.000000
9.469556 73.000000
9.471620 73.000000
9.473684 73.000000
9.475748 73.000000
9.477812 73.000000
9.479876 73.000000
9.481940 73.000000
9.484004 74.000000
9.486068 74.000000
9.488132 74.000000
9.490196 74.000000
9.492260 74.000000
9.494324 74.000000
9.496388 74.000000
9.498452 74.000000
9.500516 74.000000
9.502580 74.000000
9.504644 73.000000
9.506708 73.000000
9.508772 73.000000
9.510836 73.000000
9.512900 73.000000
9.514964 73.000000
9.517028 73.000000
9.519092 73.000000
9.521156 73.000000
9.523220 73.000000
9.525284 73.000000
9.527348 73.000000
9.529412 73.000000
9.531476 73.000000
9.533540 73.000000
9.535604 73.000000
9.537668 73.000000
9.539732 73.000000
9.541796 73.000000
9.543860 73.000000
9.545924 73.000000
9.547988 73.000000
9.550052 73.000000
9.552116 73.000000
9.554180 73.000000
9.556244 73.000000
9.558308 73.000000
9.560372 73.000000
9.562436 73.000000
9.564499 74.000000
9.566563 74.000000
9.568627 74.000000
9.570691 74.000000
9.572755 74.000000
9.574819 74.000000
9.576883 74.000000
9.578947 74.000000
9.581011 74.000000
9.583075 74.000000
9.585139 73.000000
9.587203 73.000000
9.589267 73.000000
9.591331 73.000000
9.593395 73.000000
9.595459 73.000000
9.597523 73.000000
9.599587 73.000000
9.601651 73.000000
9.603715 73.000000
9.605779 73.000000
9.607843 73.000000
9.609907 73.000000
9.611971 73.000000
9.614035 73.000000
9.616099 73.000000
9.618163 73.000000
9.620227 73.000000
9.622291 73.000000
9.624355 73.000000
9.626419 73.000000
9.628483 73.000000
9.630547 73.000000
9.632611 73.000000
9.634675 73.000000
9.636739 73.000000
9.638803 73.000000
9.640867 73.000000
9.642931 73.000000
9.644995 73.000000
9.647059 73.000000
9.649123 73.000000
9.651187 73.000000
9.653251 73.000000
9.655315 73.000000
9.657379 73.000000
9.659443 73.000000
9.661507 73.000000
9.663571 73.000000
9.665635 73.000000
9.667699 73.000000
9.669763 73.000000
9.671827 73.000000
9.673891 73.000000
9.675955 73.000000
9.678019 73.000000
9.680083 73.000000
9.682147 73.000000
9.684211 73.000000
9.686275 73.000000
9.688338 73.000000
9.690402 73.000000
9.692466 73.000000
9.694530 73.000000
9.696594 73.000000
9.698658 73.000000
9.700722 73.000000
9.702786 73.000000
9.704850 73.000000
9.706914 74.000000
9.708978 74.000000
9.711042 74.000000
9.713106 74.000000
9.715170 74.000000
9.717234 74.000000
9.719298 74.000000
9.721362 74.000000
9.723426 74.000000
9.725490 73.000000
9.727554 73.000000
9.729618 73.000000
9.731682 73.000000
9.733746 73.000000
9.735810 73.000000
9.737874 73.000000
9.739938 73.000000
9.742002 73.000000
9.744066 73.000000
9.746130 73.000000
9.748194 73.000000
9.750258 73.000000
9.752322 73.000000
9.754386 73.000000
9.756450 74.000000
9.758514 74.000000
9.760578 74.000000
9.762642 74.000000
9.764706 74.000000
9.766770 74.000000
9.768834 74.000000
9.770898 74.000000
9.772962 74.000000
9.775026 74.000000
9.777090 73.000000
9.779154 73.000000
9.781218 73.000000
9.783282 73.000000
9.785346 73.000000
9.787410 73.000000
9.789474 73.000000
9.791538 73.000000
9.793602 73.000000
9.795666 73.000000
9.797730 73.000000
9.799794 73.000000
9.801858 73.000000
9.803922 73.000000
9.805986 73.000000
9.808050 73.000000
9.810114 73.000000
9.812178 73.000000
9.814241 73.000000
9.816305 73.000000
9.818369 73.000000
9.820433 73.000000
9.822497 73.000000
9.824561 73.000000
9.826625 73.000000
9.828689 73.000000
9.830753 73.000000
9.832817 73.000000
9.834881 73.000000
9.836945 73.000000
9.839009 73.000000
9.841073 73.000000
9.843137 73.000000
9.845201 73.000000
9.847265 73.000000
9.849329 73.000000
9.851393 73.000000
9.853457 73.000000
9.855521 73.000000
9.857585 73.000000
9.859649 73.000000
9.861713 73.000000
9.863777 73.000000
9.865841 73.000000
9.867905 73.000000
9.869969 73.000000
9.872033 73.000000
9.874097 73.000000
9.876161 73.000000
9.878225 73.000000
9.880289 73.000000
9.882353 73.000000
9.884417 73.000000
9.886481 73.000000
9.888545 73.000000
9.890609 73.000000
9.892673 73.000000
9.894737 73.000000
9.896801 73.000000
9.898865 73.000000
9.900929 73.000000
9.902993 73.000000
9.905057 73.000000
9.907121 73.000000
9.909185 73.000000
9.911249 73.000000
9.913313 73.000000
9.915377 73.000000
9.917441 73.000000
9.919505 73.000000
9.921569 73.000000
9.923633 73.000000
9.925697 73.000000
9.927761 73.000000
9.929825 73.000000
9.931889 73.000000
9.933953 73.000000
9.936017 73.000000
9.938080 73.000000
9.940144 73.000000
9.942208 73.000000
9.944272 73.000000
9.946336 73.000000
9.948400 73.000000
9.950464 73.000000
9.952528 73.000000
9.954592 73.000000
9.956656 73.000000
9.958720 73.000000
9.960784 73.000000
9.962848 73.000000
9.964912 73.000000
9.966976 73.000000
9.969040 73.000000
9.971104 73.000000
9.973168 73.000000
9.975232 73.000000
9.977296 73.000000
9.979360 73.000000
9.981424 73.000000
9.983488 73.000000
9.985552 73.000000
9.987616 73.000000
9.989680 73.000000
9.991744 73.000000
9.993808 73.000000
9.995872 73.000000
9.997936 74.000000
10.000000 74.000000
10.002064 74.000000
10.004128 74.000000
10.006192 74.000000
10.008256 74.000000
10.010320 74.000000
10.012384 74.000000
10.014448 74.000000
10.016512 74.000000
10.018576 73.000000
10.020640 73.000000
10.022704 73.000000
10.024768 73.000000
10.026832 73.000000
10.028896 73.000000
10.030960 73.000000
10.033024 73.000000
10.035088 73.000000
10.037152 73.000000
10.039216 73.000000
10.041280 73.000000
10.043344 73.000000
10.045408 73.000000
10.047472 73.000000
10.049536 73.000000
10.051600 73.000000
10.053664 73.000000
10.055728 73.000000
10.057792 73.000000
10.059856 73.000000
10.061920 73.000000
10.063983 73.000000
10.066047 73.000000
10.068111 73.000000
10.070175 73.000000
10.072239 73.000000
10.074303 73.000000
10.076367 73.000000
10.078431 73.000000
10.080495 73.000000
10.082559 73.000000
10.084623 73.000000
10.086687 73.000000
10.088751 73.000000
10.090815 73.000000
10.092879 73.000000
10.094943 73.000000
10.097007 73.000000
10.099071 73.000000
10.101135 73.000000
10.103199 73.000000
10.105263 73.000000
10.107327 73.000000
10.109391 73.000000
10.111455 73.000000
10.113519 73.000000
10.115583 73.000000
10.117647 73.000000
10.119711 73.000000
10.121775 73.000000
10.123839 73.000000
10.125903 73.000000
10.127967 73.000000
10.130031 73.000000
10.132095 73.000000
10.134159 73.000000
10.136223 73.000000
10.138287 73.000000
10.140351 73.000000
10.142415 73.000000
10.144479 73.000000
10.146543 73.000000
10.148607 73.000000
10.150671 73.000000
10.152735 73.000000
10.154799 73.000000
10.156863 73.000000
10.158927 73.000000
10.160991 73.000000
10.163055 73.000000
10.165119 73.000000
10.167183 73.000000
10.169247 73.000000
10.171311 73.000000
10.173375 73.000000
10.175439 73.000000
10.177503 73.000000
10.179567 73.000000
10.181631 73.000000
10.183695 73.000000
10.185759 73.000000
10.187822 73.000000
10.189886 73.000000
10.191950 73.000000
10.194014 73.000000
10.196078 73.000000
10.198142 73.000000
10.200206 73.000000
10.202270 73.000000
10.204334 73.000000
10.206398 73.000000
10.208462 73.000000
10.210526 73.000000
10.212590 73.000000
10.214654 73.000000
10.216718 73.000000
10.218782 73.000000
10.220846 73.000000
10.222910 73.000000
10.224974 73.000000
10.227038 73.000000
10.229102 73.000000
10.231166 73.000000
10.233230 73.000000
10.235294 73.000000
10.237358 73.000000
10.239422 73.000000
10.241486 73.000000
10.243550 73.000000
10.245614 73.000000
10.247678 73.000000
10.249742 73.000000
10.251806 73.000000
10.253870 73.000000
10.255934 73.000000
10.257998 73.000000
10.260062 73.000000
10.262126 73.000000
10.264190 73.000000
10.266254 73.000000
10.268318 73.000000
10.270382 73.000000
10.272446 73.000000
10.274510 73.000000
10.276574 73.000000
10.278638 73.000000
10.280702 73.000000
10.282766 73.000000
10.284830 73.000000
10.286894 73.000000
10.288958 73.000000
10.291022 73.000000
10.293086 73.000000
10.295150 73.000000
10.297214 73.000000
10.299278 73.000000
10.301342 73.000000
10.303406 73.000000
10.305470 73.000000
10.307534 73.000000
10.309598 73.000000
10.311662 73.000000
10.313725 73.000000
10.315789 73.000000
10.317853 73.000000
10.319917 73.000000
10.321981 73.000000
10.324045 73.000000
10.326109 73.000000
10.328173 73.000000
10.330237 73.000000
10.332301 74.000000
10.334365 74.000000
10.336429 74.000000
10.338493 74.000000
10.340557 74.000000
10.342621 74.000000
10.344685 74.000000
10.346749 74.000000
10.348813 74.000000
10.350877 74.000000
10.352941 73.000000
10.355005 73.000000
10.357069 73.000000
10.359133 73.000000
10.361197 73.000000
10.363261 73.000000
10.365325 73.000000
10.367389 73.000000
10.369453 73.000000
10.371517 73.000000
10.373581 73.000000
10.375645 73.000000
10.377709 73.000000
10.379773 73.000000
10.381837 73.000000
10.383901 73.000000
10.385965 73.000000
10.388029 73.000000
10.390093 73.000000
10.392157 73.000000
10.394221 73.000000
10.396285 73.000000
10.398349 73.000000
10.400413 73.000000
10.402477 73.000000
10.404541 73.000000
10.406605 73.000000
10.408669 73.000000
10.410733 73.000000
10.412797 73.000000
10.414861 73.000000
10.416925 73.000000
10.418989 73.000000
10.421053 73.000000
10.423117 73.000000
10.425181 73.000000
10.427245 73.000000
10.429309 73.000000
10.431373 73.000000
10.433437 73.000000
10.435501 73.000000
10.437564 73.000000
10.439628 73.000000
10.441692 73.000000
10.443756 73.000000
10.445820 73.000000
10.447884 73.000000
10.449948 73.000000
10.452012 73.000000
10.454076 73.000000
10.456140 73.000000
10.458204 73.000000
10.460268 73.000000
10.462332 73.000000
10.464396 73.000000
10.466460 73.000000
10.468524 73.000000
10.470588 73.000000
10.472652 73.000000
10.474716 73.000000
10.476780 73.000000
10.478844 73.000000
10.480908 73.000000
10.482972 73.000000
10.485036 73.000000
10.487100 73.000000
10.489164 73.000000
10.491228 73.000000
10.493292 73.000000
10.495356 73.000000
10.497420 73.000000
10.499484 73.000000
10.501548 73.000000
10.503612 73.000000
10.505676 73.000000
10.507740 73.000000
10.509804 73.000000
10.511868 73.000000
10.513932 73.000000
10.515996 73.000000
10.518060 73.000000
10.520124 73.000000
10.522188 73.000000
10.524252 73.000000
10.526316 73.000000
10.528380 73.000000
10.530444 73.000000
10.532508 73.000000
10.534572 73.000000
10.536636 73.000000
10.538700 73.000000
10.540764 73.000000
10.542828 73.000000
10.544892 73.000000
10.546956 73.000000
10.549020 73.000000
10.551084 73.000000
10.553148 73.000000
10.555212 73.000000
10.557276 73.000000
10.559340 73.000000
10.561404 73.000000
10.563467 73.000000
10.565531 73.000000
10.567595 73.000000
10.569659 73.000000
10.571723 73.000000
10.573787 73.000000
10.575851 73.000000
10.577915 73.000000
10.579979 73.000000
10.582043 73.000000
10.584107 73.000000
10.586171 73.000000
10.588235 73.000000
10.590299 73.000000
10.592363 73.000000
10.594427 73.000000
10.596491 73.000000
10.598555 73.000000
10.600619 73.000000
10.602683 73.000000
10.604747 73.000000
10.606811 73.000000
10.608875 73.000000
10.610939 73.000000
10.613003 73.000000
10.615067 73.000000
10.617131 73.000000
10.619195 73.000000
10.621259 73.000000
10.623323 73.000000
10.625387 73.000000
10.627451 73.000000
10.629515 73.000000
10.631579 73.000000
10.633643 73.000000
10.635707 73.000000
10.637771 73.000000
10.639835 73.000000
10.641899 73.000000
10.643963 73.000000
10.646027 73.000000
10.648091 73.000000
10.650155 73.000000
10.652219 73.000000
10.654283 73.000000
10.656347 73.000000
10.658411 73.000000
10.660475 73.000000
10.662539 73.000000
10.664603 73.000000
10.666667 73.000000
10.668731 73.000000
10.670795 73.000000
10.672859 73.000000
10.674923 73.000000
10.676987 73.000000
10.679051 73.000000
10.681115 73.000000
10.683179 73.000000
10.685243 73.000000
10.687307 73.000000
10.689370 73.000000
10.691434 73.000000
10.693498 73.000000
10.695562 73.000000
10.697626 73.000000
10.699690 73.000000
10.701754 73.000000
10.703818 73.000000
10.705882 73.000000
10.707946 73.000000
10.710010 73.000000
10.712074 73.000000
10.714138 73.000000
10.716202 73.000000
10.718266 73.000000
10.720330 73.000000
10.722394 73.000000
10.724458 73.000000
10.726522 73.000000
10.728586 73.000000
10.730650 73.000000
10.732714 73.000000
10.734778 73.000000
10.736842 73.000000
10.738906 73.000000
10.740970 73.000000
10.743034 73.000000
10.745098 73.000000
10.747162 73.000000
10.749226 73.000000
10.751290 73.000000
10.753354 73.000000
10.755418 73.000000
10.757482 73.000000
10.759546 73.000000
10.761610 73.000000
10.763674 73.000000
10.765738 73.000000
10.767802 73.000000
10.769866 73.000000
10.771930 73.000000
10.773994 73.000000
10.776058 73.000000
10.778122 73.000000
10.780186 73.000000
10.782250 73.000000
10.784314 73.000000
10.786378 73.000000
10.788442 73.000000
10.790506 73.000000
10.792570 73.000000
10.794634 73.000000
10.796698 73.000000
10.798762 73.000000
10.800826 73.000000
10.802890 73.000000
10.804954 73.000000
10.807018 73.000000
10.809082 73.000000
10.811146 73.000000
10.813209 73.000000
10.815273 73.000000
10.817337 74.000000
10.819401 74.000000
10.821465 74.000000
10.823529 74.000000
10.825593 74.000000
10.827657 74.000000
10.829721 74.000000
10.831785 74.000000
10.833849 74.000000
10.835913 74.000000
10.837977 73.000000
10.840041 73.000000
10.842105 73.000000
10.844169 73.000000
10.846233 73.000000
10.848297 73.000000
10.850361 73.000000
10.852425 73.000000
10.854489 73.000000
10.856553 73.000000
10.858617 73.000000
10.860681 73.000000
10.862745 73.000000
10.864809 73.000000
10.866873 73.000000
10.868937 73.000000
10.871001 73.000000
10.873065 73.000000
10.875129 73.000000
10.877193 73.000000
10.879257 73.000000
10.881321 73.000000
10.883385 73.000000
10.885449 73.000000
10.887513 73.000000
10.889577 73.000000
10.891641 73.000000
10.893705 73.000000
10.895769 73.000000
10.897833 73.000000
10.899897 73.000000
10.901961 73.000000
10.904025 73.000000
10.906089 73.000000
10.908153 73.000000
10.910217 73.000000
10.912281 73.000000
10.914345 73.000000
10.916409 73.000000
10.918473 73.000000
10.920537 73.000000
10.922601 73.000000
10.924665 73.000000
10.926729 73.000000
10.928793 73.000000
10.930857 73.000000
10.932921 73.000000
10.934985 73.000000
10.937049 73.000000
10.939112 73.000000
10.941176 73.000000
10.943240 73.000000
10.945304 73.000000
10.947368 73.000000
10.949432 73.000000
10.951496 73.000000
10.953560 73.000000
10.955624 73.000000
10.957688 73.000000
10.959752 73.000000
10.961816 73.000000
10.963880 73.000000
10.965944 73.000000
10.968008 73.000000
10.970072 73.000000
10.972136 73.000000
10.974200 73.000000
10.976264 73.000000
10.978328 73.000000
10.980392 73.000000
10.982456 73.000000
10.984520 73.000000
10.986584 73.000000
10.988648 73.000000
10.990712 73.000000
10.992776 73.000000
10.994840 73.000000
10.996904 73.000000
10.998968 73.000000
11.001032 73.000000
11.003096 73.000000
11.005160 73.000000
11.007224 73.000000
11.009288 73.000000
11.011352 73.000000
11.013416 73.000000
11.015480 73.000000
11.017544 73.000000
11.019608 73.000000
11.021672 73.000000
11.023736 73.000000
11.025800 73.000000
11.027864 73.000000
11.029928 74.000000
11.031992 74.000000
11.034056 74.000000
11.036120 74.000000
11.038184 74.000000
11.040248 74.000000
11.042312 74.000000
11.044376 74.000000
11.046440 74.000000
11.048504 73.000000
11.050568 73.000000
11.052632 73.000000
11.054696 73.000000
11.056760 73.000000
11.058824 73.000000
11.060888 73.000000
11.062951 73.000000
11.065015 73.000000
11.067079 73.000000
11.069143 73.000000
11.071207 73.000000
11.073271 73.000000
11.075335 73.000000
11.077399 73.000000
11.079463 74.000000
11.081527 74.000000
11.083591 74.000000
11.085655 74.000000
11.087719 74.000000
11.089783 74.000000
11.091847 74.000000
11.093911 74.000000
11.095975 74.000000
11.098039 74.000000
11.100103 73.000000
11.102167 73.000000
11.104231 73.000000
11.106295 73.000000
11.108359 73.000000
11.110423 73.000000
11.112487 73.000000
11.114551 73.000000
11.116615 73.000000
11.118679 73.000000
11.120743 73.000000
11.122807 73.000000
11.124871 73.000000
11.126935 73.000000
11.128999 73.000000
11.131063 73.000000
11.133127 73.000000
11.135191 73.000000
11.137255 73.000000
11.139319 73.000000
11.141383 73.000000
11.143447 73.000000
11.145511 73.000000
11.147575 73.000000
11.149639 73.000000
11.151703 73.000000
11.153767 73.000000
11.155831 73.000000
11.157895 73.000000
11.159959 73.000000
11.162023 73.000000
11.164087 73.000000
11.166151 73.000000
11.168215 73.000000
11.170279 73.000000
11.172343 73.000000
11.174407 73.000000
11.176471 73.000000
11.178535 73.000000
11.180599 73.000000
11.182663 73.000000
11.184727 73.000000
11.186791 73.000000
11.188854 73.000000
11.190918 73.000000
11.192982 73.000000
11.195046 73.000000
11.197110 73.000000
11.199174 73.000000
11.201238 73.000000
11.203302 73.000000
11.205366 73.000000
11.207430 73.000000
11.209494 73.000000
11.211558 73.000000
11.213622 73.000000
11.215686 73.000000
11.217750 73.000000
11.219814 73.000000
11.221878 73.000000
11.223942 73.000000
11.226006 73.000000
11.228070 73.000000
11.230134 73.000000
11.232198 73.000000
11.234262 73.000000
11.236326 73.000000
11.238390 73.000000
11.240454 73.000000
11.242518 73.000000
11.244582 73.000000
11.246646 73.000000
11.248710 73.000000
11.250774 73.000000
11.252838 73.000000
11.254902 73.000000
11.256966 73.000000
11.259030 73.000000
11.261094 73.000000
11.263158 73.000000
11.265222 73.000000
11.267286 73.000000
11.269350 73.000000
11.271414 73.000000
11.273478 73.000000
11.275542 73.000000
11.277606 73.000000
11.279670 73.000000
11.281734 73.000000
11.283798 73.000000
11.285862 73.000000
11.287926 73.000000
11.289990 73.000000
11.292054 74.000000
11.294118 74.000000
11.296182 74.000000
11.298246 74.000000
11.300310 74.000000
11.302374 74.000000
11.304438 74.000000
11.306502 74.000000
11.308566 74.000000
11.310630 74.000000
11.312693 73.000000
11.314757 73.000000
11.316821 73.000000
11.318885 73.000000
11.320949 73.000000
11.323013 73.000000
11.325077 73.000000
11.327141 73.000000
11.329205 73.000000
11.331269 73.000000
11.333333 73.000000
11.335397 73.000000
11.337461 73.000000
11.339525 73.000000
11.341589 73.000000
11.343653 73.000000
11.345717 73.000000
11.347781 73.000000
11.349845 73.000000
11.351909 73.000000
11.353973 73.000000
11.356037 73.000000
11.358101 73.000000
11.360165 73.000000
11.362229 73.000000
11.364293 73.000000
11.366357 73.000000
11.368421 73.000000
11.370485 73.000000
11.372549 73.000000
11.374613 73.000000
11.376677 73.000000
11.378741 73.000000
11.380805 73.000000
11.382869 73.000000
11.384933 73.000000
11.386997 73.000000
11.389061 73.000000
11.391125 73.000000
11.393189 73.000000
11.395253 73.000000
11.397317 73.000000
11.399381 73.000000
11.401445 73.000000
11.403509 73.000000
11.405573 73.000000
11.407637 73.000000
11.409701 73.000000
11.411765 73.000000
11.413829 73.000000
11.415893 73.000000
11.417957 73.000000
11.420021 73.000000
11.422085 73.000000
11.424149 73.000000
11.426213 73.000000
11.428277 73.000000
11.430341 73.000000
11.432405 73.000000
11.434469 73.000000
11.436533 73.000000
11.438596 73.000000
11.440660 73.000000
11.442724 73.000000
11.444788 73.000000
11.446852 73.000000
11.448916 73.000000
11.450980 73.000000
11.453044 73.000000
11.455108 73.000000
11.457172 73.000000
11.459236 73.000000
11.461300 73.000000
11.463364 73.000000
11.465428 73.000000
11.467492 73.000000
11.469556 73.000000
11.471620 73.000000
11.473684 73.000000
11.475748 73.000000
11.477812 73.000000
11.479876 73.000000
11.481940 73.000000
11.484004 73.000000
11.486068 73.000000
11.488132 73.000000
11.490196 73.000000
11.492260 73.000000
11.494324 73.000000
11.496388 73.000000
11.498452 73.000000
11.500516 73.000000
11.502580 73.000000
11.504644 73.000000
11.506708 73.000000
11.508772 73.000000
11.510836 73.000000
11.512900 73.000000
11.514964 73.000000
11.517028 73.000000
11.519092 73.000000
11.521156 73.000000
11.523220 73.000000
11.525284 73.000000
11.527348 73.000000
11.529412 73.000000
11.531476 73.000000
11.533540 73.000000
11.535604 73.000000
11.537668 73.000000
11.539732 73.000000
11.541796 73.000000
11.543860 73.000000
11.545924 73.000000
11.547988 73.000000
11.550052 73.000000
11.552116 73.000000
11.554180 73.000000
11.556244 73.000000
11.558308 73.000000
11.560372 73.000000
11.562436 73.000000
11.564499 73.000000
11.566563 73.000000
11.568627 73.000000
11.570691 73.000000
11.572755 73.000000
11.574819 73.000000
11.576883 73.000000
11.578947 73.000000
11.581011 73.000000
11.583075 73.000000
11.585139 73.000000
11.587203 73.000000
11.589267 73.000000
11.591331 73.000000
11.593395 73.000000
11.595459 73.000000
11.597523 73.000000
11.599587 73.000000
11.601651 73.000000
11.603715 73.000000
11.605779 73.000000
11.607843 73.000000
11.609907 73.000000
11.611971 73.000000
11.614035 73.000000
11.616099 73.000000
11.618163 73.000000
11.620227 73.000000
11.622291 73.000000
11.624355 73.000000
11.626419 73.000000
11.628483 73.000000
11.630547 73.000000
11.632611 73.000000
11.634675 73.000000
11.636739 73.000000
11.638803 73.000000
11.640867 73.000000
11.642931 73.000000
11.644995 73.000000
11.647059 73.000000
11.649123 73.000000
11.651187 73.000000
11.653251 73.000000
11.655315 73.000000
11.657379 73.000000
11.659443 73.000000
11.661507 73.000000
11.663571 73.000000
11.665635 73.000000
11.667699 73.000000
11.669763 73.000000
11.671827 73.000000
11.673891 73.000000
11.675955 73.000000
11.678019 73.000000
11.680083 73.000000
11.682147 73.000000
11.684211 73.000000
11.686275 73.000000
11.688338 73.000000
11.690402 73.000000
11.692466 73.000000
11.694530 73.000000
11.696594 73.000000
11.698658 73.000000
11.700722 73.000000
11.702786 73.000000
11.704850 73.000000
11.706914 73.000000
11.708978 73.000000
11.711042 73.000000
11.713106 73.000000
11.715170 73.000000
11.717234 73.000000
11.719298 73.000000
11.721362 73.000000
11.723426 73.000000
11.725490 73.000000
11.727554 73.000000
11.729618 73.000000
11.731682 73.000000
11.733746 73.000000
11.735810 73.000000
11.737874 73.000000
11.739938 73.000000
11.742002 73.000000
11.744066 73.000000
11.746130 73.000000
11.748194 73.000000
11.750258 73.000000
11.752322 73.000000
11.754386 73.000000
11.756450 74.000000
11.758514 74.000000
11.760578 74.000000
11.762642 74.000000
11.764706 74.000000
11.766770 74.000000
##END=
