##TITLE= TP_Ejercicio_1d [75 MHz ¹³C NMR en CDCl₃]
##JCAMP-DX= 5.00
##ORIGIN= LISA RMN DB
##DATA TYPE= NMR SPECTRUM
##DATA CLASS= XYDATA
##$BF1= 75.45
##$SFO1= 75.45
##$NUC1= <13C>
##XUNITS=	PPM
##YUNITS=	Intensity
##NPOINTS=	5262
##FIRSTX=	-26.973564
##LASTX=	236.795807
##FIRSTY=	0.000000
##LASTY=	0.000000
##XFACTOR= 1
##YFACTOR= 1
##MAXY= 2153.000000
##MINY= 0.000000
##DELTAX= 0.050137
##XYDATA=(X++(Y..Y))
-26.973564 0.000000
-26.923428 0.000000
-26.873291 0.000000
-26.823154 0.000000
-26.773017 0.000000
-26.722881 0.000000
-26.672744 0.000000
-26.622607 0.000000
-26.572470 0.000000
-26.522334 0.000000
-26.472197 0.000000
-26.422060 0.000000
-26.371923 0.000000
-26.321787 0.000000
-26.271650 0.000000
-26.221513 0.000000
-26.171376 0.000000
-26.121240 0.000000
-26.071103 0.000000
-26.020966 0.000000
-25.970830 0.000000
-25.920693 0.000000
-25.870556 0.000000
-25.820419 0.000000
-25.770283 0.000000
-25.720146 0.000000
-25.670009 0.000000
-25.619872 0.000000
-25.569736 0.000000
-25.519599 0.000000
-25.469462 0.000000
-25.419325 0.000000
-25.369189 0.000000
-25.319052 0.000000
-25.268915 0.000000
-25.218778 0.000000
-25.168642 0.000000
-25.118505 0.000000
-25.068368 0.000000
-25.018232 0.000000
-24.968095 0.000000
-24.917958 0.000000
-24.867821 0.000000
-24.817685 0.000000
-24.767548 0.000000
-24.717411 0.000000
-24.667274 0.000000
-24.617138 0.000000
-24.567001 0.000000
-24.516864 0.000000
-24.466727 0.000000
-24.416591 0.000000
-24.366454 0.000000
-24.316317 0.000000
-24.266180 0.000000
-24.216044 0.000000
-24.165907 0.000000
-24.115770 0.000000
-24.065634 0.000000
-24.015497 0.000000
-23.965360 0.000000
-23.915223 0.000000
-23.865087 0.000000
-23.814950 0.000000
-23.764813 0.000000
-23.714676 0.000000
-23.664540 0.000000
-23.614403 0.000000
-23.564266 0.000000
-23.514129 0.000000
-23.463993 0.000000
-23.413856 0.000000
-23.363719 0.000000
-23.313582 0.000000
-23.263446 0.000000
-23.213309 0.000000
-23.163172 0.000000
-23.113036 0.000000
-23.062899 0.000000
-23.012762 0.000000
-22.962625 0.000000
-22.912489 0.000000
-22.862352 0.000000
-22.812215 0.000000
-22.762078 0.000000
-22.711942 0.000000
-22.661805 0.000000
-22.611668 0.000000
-22.561531 0.000000
-22.511395 0.000000
-22.461258 0.000000
-22.411121 0.000000
-22.360985 0.000000
-22.310848 0.000000
-22.260711 0.000000
-22.210574 0.000000
-22.160438 0.000000
-22.110301 0.000000
-22.060164 0.000000
-22.010027 0.000000
-21.959891 0.000000
-21.909754 0.000000
-21.859617 0.000000
-21.809480 0.000000
-21.759344 0.000000
-21.709207 0.000000
-21.659070 0.000000
-21.608933 0.000000
-21.558797 0.000000
-21.508660 0.000000
-21.458523 0.000000
-21.408387 0.000000
-21.358250 0.000000
-21.308113 0.000000
-21.257976 0.000000
-21.207840 0.000000
-21.157703 0.000000
-21.107566 0.000000
-21.057429 0.000000
-21.007293 0.000000
-20.957156 0.000000
-20.907019 0.000000
-20.856882 0.000000
-20.806746 0.000000
-20.756609 0.000000
-20.706472 0.000000
-20.656335 0.000000
-20.606199 0.000000
-20.556062 0.000000
-20.505925 0.000000
-20.455789 0.000000
-20.405652 0.000000
-20.355515 0.000000
-20.305378 0.000000
-20.255242 0.000000
-20.205105 0.000000
-20.154968 0.000000
-20.104831 0.000000
-20.054695 0.000000
-20.004558 0.000000
-19.954421 0.000000
-19.904284 0.000000
-19.854148 0.000000
-19.804011 0.000000
-19.753874 0.000000
-19.703737 0.000000
-19.653601 0.000000
-19.603464 0.000000
-19.553327 0.000000
-19.503191 0.000000
-19.453054 0.000000
-19.402917 0.000000
-19.352780 0.000000
-19.302644 0.000000
-19.252507 0.000000
-19.202370 0.000000
-19.152233 0.000000
-19.102097 0.000000
-19.051960 0.000000
-19.001823 0.000000
-18.951686 0.000000
-18.901550 0.000000
-18.851413 0.000000
-18.801276 0.000000
-18.751139 0.000000
-18.701003 0.000000
-18.650866 0.000000
-18.600729 0.000000
-18.550593 0.000000
-18.500456 0.000000
-18.450319 0.000000
-18.400182 0.000000
-18.350046 0.000000
-18.299909 0.000000
-18.249772 0.000000
-18.199635 0.000000
-18.149499 0.000000
-18.099362 0.000000
-18.049225 0.000000
-17.999088 0.000000
-17.948952 0.000000
-17.898815 0.000000
-17.848678 0.000000
-17.798541 0.000000
-17.748405 0.000000
-17.698268 0.000000
-17.648131 0.000000
-17.597995 0.000000
-17.547858 0.000000
-17.497721 0.000000
-17.447584 0.000000
-17.397448 0.000000
-17.347311 0.000000
-17.297174 0.000000
-17.247037 0.000000
-17.196901 0.000000
-17.146764 0.000000
-17.096627 0.000000
-17.046490 0.000000
-16.996354 0.000000
-16.946217 0.000000
-16.896080 0.000000
-16.845943 0.000000
-16.795807 0.000000
-16.745670 0.000000
-16.695533 0.000000
-16.645397 0.000000
-16.595260 0.000000
-16.545123 0.000000
-16.494986 0.000000
-16.444850 0.000000
-16.394713 0.000000
-16.344576 0.000000
-16.294439 0.000000
-16.244303 0.000000
-16.194166 0.000000
-16.144029 0.000000
-16.093892 0.000000
-16.043756 0.000000
-15.993619 0.000000
-15.943482 0.000000
-15.893345 0.000000
-15.843209 0.000000
-15.793072 0.000000
-15.742935 0.000000
-15.692799 0.000000
-15.642662 0.000000
-15.592525 0.000000
-15.542388 0.000000
-15.492252 0.000000
-15.442115 0.000000
-15.391978 0.000000
-15.341841 0.000000
-15.291705 0.000000
-15.241568 0.000000
-15.191431 0.000000
-15.141294 0.000000
-15.091158 0.000000
-15.041021 0.000000
-14.990884 0.000000
-14.940747 0.000000
-14.890611 0.000000
-14.840474 0.000000
-14.790337 0.000000
-14.740201 0.000000
-14.690064 0.000000
-14.639927 0.000000
-14.589790 0.000000
-14.539654 0.000000
-14.489517 0.000000
-14.439380 0.000000
-14.389243 0.000000
-14.339107 0.000000
-14.288970 0.000000
-14.238833 0.000000
-14.188696 0.000000
-14.138560 0.000000
-14.088423 0.000000
-14.038286 0.000000
-13.988149 0.000000
-13.938013 0.000000
-13.887876 0.000000
-13.837739 0.000000
-13.787603 0.000000
-13.737466 0.000000
-13.687329 0.000000
-13.637192 0.000000
-13.587056 0.000000
-13.536919 0.000000
-13.486782 0.000000
-13.436645 0.000000
-13.386509 0.000000
-13.336372 0.000000
-13.286235 0.000000
-13.236098 0.000000
-13.185962 0.000000
-13.135825 0.000000
-13.085688 0.000000
-13.035552 0.000000
-12.985415 0.000000
-12.935278 0.000000
-12.885141 0.000000
-12.835005 0.000000
-12.784868 0.000000
-12.734731 0.000000
-12.684594 0.000000
-12.634458 0.000000
-12.584321 0.000000
-12.534184 0.000000
-12.484047 0.000000
-12.433911 0.000000
-12.383774 0.000000
-12.333637 0.000000
-12.283500 0.000000
-12.233364 0.000000
-12.183227 0.000000
-12.133090 0.000000
-12.082954 0.000000
-12.032817 0.000000
-11.982680 0.000000
-11.932543 0.000000
-11.882407 0.000000
-11.832270 0.000000
-11.782133 0.000000
-11.731996 0.000000
-11.681860 0.000000
-11.631723 0.000000
-11.581586 0.000000
-11.531449 0.000000
-11.481313 0.000000
-11.431176 0.000000
-11.381039 0.000000
-11.330902 0.000000
-11.280766 0.000000
-11.230629 0.000000
-11.180492 0.000000
-11.130356 0.000000
-11.080219 0.000000
-11.030082 0.000000
-10.979945 0.000000
-10.929809 0.000000
-10.879672 0.000000
-10.829535 0.000000
-10.779398 0.000000
-10.729262 0.000000
-10.679125 0.000000
-10.628988 0.000000
-10.578851 0.000000
-10.528715 0.000000
-10.478578 0.000000
-10.428441 0.000000
-10.378304 0.000000
-10.328168 0.000000
-10.278031 0.000000
-10.227894 0.000000
-10.177758 0.000000
-10.127621 0.000000
-10.077484 0.000000
-10.027347 0.000000
-9.977211 0.000000
-9.927074 0.000000
-9.876937 0.000000
-9.826800 0.000000
-9.776664 0.000000
-9.726527 0.000000
-9.676390 0.000000
-9.626253 0.000000
-9.576117 0.000000
-9.525980 0.000000
-9.475843 0.000000
-9.425706 0.000000
-9.375570 0.000000
-9.325433 0.000000
-9.275296 0.000000
-9.225160 0.000000
-9.175023 0.000000
-9.124886 0.000000
-9.074749 0.000000
-9.024613 0.000000
-8.974476 0.000000
-8.924339 0.000000
-8.874202 0.000000
-8.824066 0.000000
-8.773929 0.000000
-8.723792 0.000000
-8.673655 0.000000
-8.623519 0.000000
-8.573382 0.000000
-8.523245 0.000000
-8.473108 0.000000
-8.422972 0.000000
-8.372835 0.000000
-8.322698 0.000000
-8.272562 0.000000
-8.222425 0.000000
-8.172288 0.000000
-8.122151 0.000000
-8.072015 0.000000
-8.021878 0.000000
-7.971741 0.000000
-7.921604 0.000000
-7.871468 0.000000
-7.821331 0.000000
-7.771194 0.000000
-7.721057 0.000000
-7.670921 0.000000
-7.620784 0.000000
-7.570647 0.000000
-7.520510 0.000000
-7.470374 0.000000
-7.420237 0.000000
-7.370100 0.000000
-7.319964 0.000000
-7.269827 0.000000
-7.219690 0.000000
-7.169553 0.000000
-7.119417 0.000000
-7.069280 0.000000
-7.019143 0.000000
-6.969006 0.000000
-6.918870 0.000000
-6.868733 0.000000
-6.818596 0.000000
-6.768459 0.000000
-6.718323 0.000000
-6.668186 0.000000
-6.618049 0.000000
-6.567912 0.000000
-6.517776 0.000000
-6.467639 0.000000
-6.417502 0.000000
-6.367366 0.000000
-6.317229 0.000000
-6.267092 0.000000
-6.216955 0.000000
-6.166819 0.000000
-6.116682 0.000000
-6.066545 0.000000
-6.016408 0.000000
-5.966272 0.000000
-5.916135 0.000000
-5.865998 0.000000
-5.815861 0.000000
-5.765725 0.000000
-5.715588 0.000000
-5.665451 0.000000
-5.615314 0.000000
-5.565178 0.000000
-5.515041 0.000000
-5.464904 0.000000
-5.414768 0.000000
-5.364631 0.000000
-5.314494 0.000000
-5.264357 0.000000
-5.214221 0.000000
-5.164084 0.000000
-5.113947 0.000000
-5.063810 0.000000
-5.013674 0.000000
-4.963537 0.000000
-4.913400 0.000000
-4.863263 0.000000
-4.813127 0.000000
-4.762990 0.000000
-4.712853 0.000000
-4.662716 0.000000
-4.612580 0.000000
-4.562443 0.000000
-4.512306 0.000000
-4.462170 0.000000
-4.412033 0.000000
-4.361896 0.000000
-4.311759 0.000000
-4.261623 0.000000
-4.211486 0.000000
-4.161349 0.000000
-4.111212 0.000000
-4.061076 0.000000
-4.010939 0.000000
-3.960802 0.000000
-3.910665 0.000000
-3.860529 0.000000
-3.810392 0.000000
-3.760255 0.000000
-3.710119 0.000000
-3.659982 0.000000
-3.609845 0.000000
-3.559708 0.000000
-3.509572 0.000000
-3.459435 0.000000
-3.409298 0.000000
-3.359161 0.000000
-3.309025 0.000000
-3.258888 0.000000
-3.208751 0.000000
-3.158614 0.000000
-3.108478 0.000000
-3.058341 0.000000
-3.008204 0.000000
-2.958067 0.000000
-2.907931 0.000000
-2.857794 0.000000
-2.807657 0.000000
-2.757521 0.000000
-2.707384 0.000000
-2.657247 0.000000
-2.607110 0.000000
-2.556974 0.000000
-2.506837 0.000000
-2.456700 0.000000
-2.406563 0.000000
-2.356427 0.000000
-2.306290 0.000000
-2.256153 0.000000
-2.206016 0.000000
-2.155880 0.000000
-2.105743 0.000000
-2.055606 0.000000
-2.005469 0.000000
-1.955333 0.000000
-1.905196 0.000000
-1.855059 0.000000
-1.804923 0.000000
-1.754786 0.000000
-1.704649 0.000000
-1.654512 0.000000
-1.604376 0.000000
-1.554239 0.000000
-1.504102 0.000000
-1.453965 0.000000
-1.403829 0.000000
-1.353692 0.000000
-1.303555 0.000000
-1.253418 0.000000
-1.203282 0.000000
-1.153145 0.000000
-1.103008 0.000000
-1.052871 0.000000
-1.002735 0.000000
-0.952598 0.000000
-0.902461 0.000000
-0.852325 0.000000
-0.802188 0.000000
-0.752051 0.000000
-0.701914 0.000000
-0.651778 0.000000
-0.601641 0.000000
-0.551504 0.000000
-0.501367 0.000000
-0.451231 0.000000
-0.401094 0.000000
-0.350957 0.000000
-0.300820 0.000000
-0.250684 0.000000
-0.200547 0.000000
-0.150410 0.000000
-0.100273 0.000000
-0.050137 0.000000
-0.000000 46.000000
0.050137 0.000000
0.100273 0.000000
0.150410 0.000000
0.200547 0.000000
0.250684 0.000000
0.300820 0.000000
0.350957 0.000000
0.401094 0.000000
0.451231 0.000000
0.501367 0.000000
0.551504 0.000000
0.601641 0.000000
0.651778 0.000000
0.701914 0.000000
0.752051 0.000000
0.802188 0.000000
0.852325 0.000000
0.902461 0.000000
0.952598 0.000000
1.002735 0.000000
1.052871 0.000000
1.103008 0.000000
1.153145 0.000000
1.203282 0.000000
1.253418 0.000000
1.303555 0.000000
1.353692 0.000000
1.403829 0.000000
1.453965 0.000000
1.504102 0.000000
1.554239 0.000000
1.604376 0.000000
1.654512 0.000000
1.704649 0.000000
1.754786 0.000000
1.804923 0.000000
1.855059 0.000000
1.905196 0.000000
1.955333 0.000000
2.005469 0.000000
2.055606 0.000000
2.105743 0.000000
2.155880 0.000000
2.206016 0.000000
2.256153 0.000000
2.306290 0.000000
2.356427 0.000000
2.406563 0.000000
2.456700 0.000000
2.506837 0.000000
2.556974 0.000000
2.607110 0.000000
2.657247 0.000000
2.707384 0.000000
2.757521 0.000000
2.807657 0.000000
2.857794 0.000000
2.907931 0.000000
2.958067 0.000000
3.008204 0.000000
3.058341 0.000000
3.108478 0.000000
3.158614 0.000000
3.208751 0.000000
3.258888 0.000000
3.309025 0.000000
3.359161 0.000000
3.409298 0.000000
3.459435 0.000000
3.509572 0.000000
3.559708 0.000000
3.609845 0.000000
3.659982 0.000000
3.710119 0.000000
3.760255 0.000000
3.810392 0.000000
3.860529 0.000000
3.910665 0.000000
3.960802 0.000000
4.010939 0.000000
4.061076 0.000000
4.111212 0.000000
4.161349 0.000000
4.211486 0.000000
4.261623 0.000000
4.311759 0.000000
4.361896 0.000000
4.412033 0.000000
4.462170 0.000000
4.512306 0.000000
4.562443 0.000000
4.612580 0.000000
4.662716 0.000000
4.712853 0.000000
4.762990 0.000000
4.813127 0.000000
4.863263 0.000000
4.913400 0.000000
4.963537 0.000000
5.013674 0.000000
5.063810 0.000000
5.113947 0.000000
5.164084 0.000000
5.214221 0.000000
5.264357 0.000000
5.314494 0.000000
5.364631 0.000000
5.414768 0.000000
5.464904 0.000000
5.515041 0.000000
5.565178 0.000000
5.615314 0.000000
5.665451 0.000000
5.715588 0.000000
5.765725 0.000000
5.815861 0.000000
5.865998 0.000000
5.916135 0.000000
5.966272 0.000000
6.016408 0.000000
6.066545 0.000000
6.116682 0.000000
6.166819 0.000000
6.216955 0.000000
6.267092 0.000000
6.317229 0.000000
6.367366 0.000000
6.417502 0.000000
6.467639 0.000000
6.517776 0.000000
6.567912 0.000000
6.618049 0.000000
6.668186 0.000000
6.718323 0.000000
6.768459 0.000000
6.818596 0.000000
6.868733 0.000000
6.918870 0.000000
6.969006 0.000000
7.019143 0.000000
7.069280 0.000000
7.119417 0.000000
7.169553 0.000000
7.219690 0.000000
7.269827 0.000000
7.319964 0.000000
7.370100 0.000000
7.420237 0.000000
7.470374 0.000000
7.520510 0.000000
7.570647 0.000000
7.620784 0.000000
7.670921 0.000000
7.721057 0.000000
7.771194 0.000000
7.821331 0.000000
7.871468 0.000000
7.921604 0.000000
7.971741 0.000000
8.021878 0.000000
8.072015 0.000000
8.122151 0.000000
8.172288 0.000000
8.222425 0.000000
8.272562 0.000000
8.322698 0.000000
8.372835 0.000000
8.422972 0.000000
8.473108 0.000000
8.523245 0.000000
8.573382 0.000000
8.623519 0.000000
8.673655 0.000000
8.723792 0.000000
8.773929 0.000000
8.824066 0.000000
8.874202 0.000000
8.924339 0.000000
8.974476 0.000000
9.024613 0.000000
9.074749 0.000000
9.124886 0.000000
9.175023 0.000000
9.225160 0.000000
9.275296 0.000000
9.325433 0.000000
9.375570 0.000000
9.425706 0.000000
9.475843 0.000000
9.525980 0.000000
9.576117 0.000000
9.626253 0.000000
9.676390 0.000000
9.726527 0.000000
9.776664 0.000000
9.826800 0.000000
9.876937 0.000000
9.927074 0.000000
9.977211 0.000000
10.027347 0.000000
10.077484 0.000000
10.127621 0.000000
10.177758 0.000000
10.227894 0.000000
10.278031 0.000000
10.328168 0.000000
10.378304 0.000000
10.428441 0.000000
10.478578 0.000000
10.528715 0.000000
10.578851 0.000000
10.628988 0.000000
10.679125 0.000000
10.729262 0.000000
10.779398 0.000000
10.829535 0.000000
10.879672 0.000000
10.929809 0.000000
10.979945 0.000000
11.030082 0.000000
11.080219 0.000000
11.130356 0.000000
11.180492 0.000000
11.230629 0.000000
11.280766 0.000000
11.330902 0.000000
11.381039 0.000000
11.431176 0.000000
11.481313 0.000000
11.531449 0.000000
11.581586 0.000000
11.631723 0.000000
11.681860 0.000000
11.731996 0.000000
11.782133 0.000000
11.832270 0.000000
11.882407 0.000000
11.932543 0.000000
11.982680 0.000000
12.032817 0.000000
12.082954 0.000000
12.133090 0.000000
12.183227 0.000000
12.233364 0.000000
12.283500 0.000000
12.333637 0.000000
12.383774 0.000000
12.433911 0.000000
12.484047 0.000000
12.534184 0.000000
12.584321 0.000000
12.634458 0.000000
12.684594 0.000000
12.734731 0.000000
12.784868 0.000000
12.835005 0.000000
12.885141 0.000000
12.935278 0.000000
12.985415 0.000000
13.035552 0.000000
13.085688 0.000000
13.135825 0.000000
13.185962 0.000000
13.236098 0.000000
13.286235 0.000000
13.336372 0.000000
13.386509 0.000000
13.436645 0.000000
13.486782 0.000000
13.536919 0.000000
13.587056 0.000000
13.637192 0.000000
13.687329 0.000000
13.737466 0.000000
13.787603 0.000000
13.837739 0.000000
13.887876 0.000000
13.938013 0.000000
13.988149 0.000000
14.038286 0.000000
14.088423 0.000000
14.138560 0.000000
14.188696 0.000000
14.238833 0.000000
14.288970 0.000000
14.339107 0.000000
14.389243 0.000000
14.439380 0.000000
14.489517 0.000000
14.539654 0.000000
14.589790 0.000000
14.639927 0.000000
14.690064 0.000000
14.740201 0.000000
14.790337 0.000000
14.840474 0.000000
14.890611 0.000000
14.940747 0.000000
14.990884 0.000000
15.041021 0.000000
15.091158 0.000000
15.141294 0.000000
15.191431 0.000000
15.241568 0.000000
15.291705 0.000000
15.341841 0.000000
15.391978 0.000000
15.442115 0.000000
15.492252 0.000000
15.542388 0.000000
15.592525 0.000000
15.642662 0.000000
15.692799 0.000000
15.742935 0.000000
15.793072 0.000000
15.843209 0.000000
15.893345 0.000000
15.943482 0.000000
15.993619 0.000000
16.043756 0.000000
16.093892 0.000000
16.144029 0.000000
16.194166 0.000000
16.244303 0.000000
16.294439 0.000000
16.344576 0.000000
16.394713 0.000000
16.444850 0.000000
16.494986 0.000000
16.545123 0.000000
16.595260 0.000000
16.645397 0.000000
16.695533 0.000000
16.745670 0.000000
16.795807 0.000000
16.845943 0.000000
16.896080 0.000000
16.946217 0.000000
16.996354 0.000000
17.046490 0.000000
17.096627 0.000000
17.146764 0.000000
17.196901 0.000000
17.247037 0.000000
17.297174 0.000000
17.347311 0.000000
17.397448 0.000000
17.447584 0.000000
17.497721 0.000000
17.547858 0.000000
17.597995 0.000000
17.648131 0.000000
17.698268 0.000000
17.748405 0.000000
17.798541 0.000000
17.848678 0.000000
17.898815 0.000000
17.948952 0.000000
17.999088 0.000000
18.049225 0.000000
18.099362 0.000000
18.149499 0.000000
18.199635 0.000000
18.249772 0.000000
18.299909 0.000000
18.350046 0.000000
18.400182 0.000000
18.450319 0.000000
18.500456 0.000000
18.550593 0.000000
18.600729 0.000000
18.650866 0.000000
18.701003 0.000000
18.751139 0.000000
18.801276 0.000000
18.851413 0.000000
18.901550 0.000000
18.951686 0.000000
19.001823 0.000000
19.051960 0.000000
19.102097 0.000000
19.152233 0.000000
19.202370 0.000000
19.252507 0.000000
19.302644 0.000000
19.352780 0.000000
19.402917 0.000000
19.453054 0.000000
19.503191 0.000000
19.553327 0.000000
19.603464 0.000000
19.653601 0.000000
19.703737 0.000000
19.753874 0.000000
19.804011 0.000000
19.854148 0.000000
19.904284 0.000000
19.954421 0.000000
20.004558 0.000000
20.054695 0.000000
20.104831 0.000000
20.154968 0.000000
20.205105 0.000000
20.255242 0.000000
20.305378 0.000000
20.355515 0.000000
20.405652 0.000000
20.455789 0.000000
20.505925 0.000000
20.556062 0.000000
20.606199 0.000000
20.656335 0.000000
20.706472 0.000000
20.756609 0.000000
20.806746 0.000000
20.856882 0.000000
20.907019 0.000000
20.957156 0.000000
21.007293 0.000000
21.057429 0.000000
21.107566 0.000000
21.157703 0.000000
21.207840 0.000000
21.257976 0.000000
21.308113 0.000000
21.358250 0.000000
21.408387 0.000000
21.458523 0.000000
21.508660 0.000000
21.558797 0.000000
21.608933 0.000000
21.659070 0.000000
21.709207 0.000000
21.759344 0.000000
21.809480 0.000000
21.859617 0.000000
21.909754 0.000000
21.959891 0.000000
22.010027 0.000000
22.060164 0.000000
22.110301 0.000000
22.160438 0.000000
22.210574 0.000000
22.260711 0.000000
22.310848 0.000000
22.360985 0.000000
22.411121 0.000000
22.461258 0.000000
22.511395 0.000000
22.561531 0.000000
22.611668 0.000000
22.661805 0.000000
22.711942 0.000000
22.762078 0.000000
22.812215 0.000000
22.862352 0.000000
22.912489 0.000000
22.962625 0.000000
23.012762 0.000000
23.062899 0.000000
23.113036 0.000000
23.163172 0.000000
23.213309 0.000000
23.263446 0.000000
23.313582 0.000000
23.363719 0.000000
23.413856 0.000000
23.463993 0.000000
23.514129 0.000000
23.564266 0.000000
23.614403 0.000000
23.664540 0.000000
23.714676 0.000000
23.764813 0.000000
23.814950 0.000000
23.865087 0.000000
23.915223 0.000000
23.965360 0.000000
24.015497 0.000000
24.065634 0.000000
24.115770 0.000000
24.165907 0.000000
24.216044 0.000000
24.266180 0.000000
24.316317 0.000000
24.366454 0.000000
24.416591 0.000000
24.466727 0.000000
24.516864 0.000000
24.567001 0.000000
24.617138 0.000000
24.667274 0.000000
24.717411 0.000000
24.767548 0.000000
24.817685 0.000000
24.867821 0.000000
24.917958 0.000000
24.968095 0.000000
25.018232 0.000000
25.068368 0.000000
25.118505 0.000000
25.168642 0.000000
25.218778 0.000000
25.268915 0.000000
25.319052 0.000000
25.369189 0.000000
25.419325 0.000000
25.469462 0.000000
25.519599 0.000000
25.569736 0.000000
25.619872 0.000000
25.670009 0.000000
25.720146 0.000000
25.770283 0.000000
25.820419 0.000000
25.870556 0.000000
25.920693 0.000000
25.970830 0.000000
26.020966 0.000000
26.071103 0.000000
26.121240 0.000000
26.171376 0.000000
26.221513 0.000000
26.271650 0.000000
26.321787 0.000000
26.371923 0.000000
26.422060 0.000000
26.472197 0.000000
26.522334 0.000000
26.572470 0.000000
26.622607 0.000000
26.672744 0.000000
26.722881 0.000000
26.773017 0.000000
26.823154 0.000000
26.873291 0.000000
26.923428 0.000000
26.973564 0.000000
27.023701 0.000000
27.073838 0.000000
27.123974 0.000000
27.174111 0.000000
27.224248 0.000000
27.274385 0.000000
27.324521 0.000000
27.374658 0.000000
27.424795 0.000000
27.474932 0.000000
27.525068 0.000000
27.575205 0.000000
27.625342 0.000000
27.675479 0.000000
27.725615 0.000000
27.775752 0.000000
27.825889 0.000000
27.876026 0.000000
27.926162 0.000000
27.976299 0.000000
28.026436 0.000000
28.076572 0.000000
28.126709 0.000000
28.176846 0.000000
28.226983 0.000000
28.277119 0.000000
28.327256 0.000000
28.377393 0.000000
28.427530 0.000000
28.477666 0.000000
28.527803 0.000000
28.577940 0.000000
28.628077 0.000000
28.678213 0.000000
28.728350 0.000000
28.778487 0.000000
28.828624 0.000000
28.878760 0.000000
28.928897 0.000000
28.979034 0.000000
29.029170 0.000000
29.079307 0.000000
29.129444 0.000000
29.179581 0.000000
29.229717 0.000000
29.279854 0.000000
29.329991 0.000000
29.380128 0.000000
29.430264 0.000000
29.480401 0.000000
29.530538 0.000000
29.580675 0.000000
29.630811 0.000000
29.680948 0.000000
29.731085 0.000000
29.781222 0.000000
29.831358 0.000000
29.881495 0.000000
29.931632 0.000000
29.981768 0.000000
30.031905 0.000000
30.082042 0.000000
30.132179 0.000000
30.182315 0.000000
30.232452 0.000000
30.282589 0.000000
30.332726 0.000000
30.382862 0.000000
30.432999 0.000000
30.483136 0.000000
30.533273 0.000000
30.583409 0.000000
30.633546 0.000000
30.683683 0.000000
30.733820 0.000000
30.783956 0.000000
30.834093 0.000000
30.884230 0.000000
30.934366 0.000000
30.984503 0.000000
31.034640 0.000000
31.084777 38.000000
31.134913 177.000000
31.185050 221.000000
31.235187 2153.000000
31.285324 502.000000
31.335460 0.000000
31.385597 0.000000
31.435734 0.000000
31.485871 0.000000
31.536007 0.000000
31.586144 0.000000
31.636281 0.000000
31.686418 0.000000
31.736554 0.000000
31.786691 0.000000
31.836828 0.000000
31.886964 0.000000
31.937101 0.000000
31.987238 0.000000
32.037375 0.000000
32.087511 0.000000
32.137648 0.000000
32.187785 0.000000
32.237922 0.000000
32.288058 0.000000
32.338195 0.000000
32.388332 0.000000
32.438469 0.000000
32.488605 0.000000
32.538742 0.000000
32.588879 0.000000
32.639015 0.000000
32.689152 0.000000
32.739289 0.000000
32.789426 0.000000
32.839562 0.000000
32.889699 0.000000
32.939836 0.000000
32.989973 0.000000
33.040109 0.000000
33.090246 0.000000
33.140383 0.000000
33.190520 0.000000
33.240656 0.000000
33.290793 0.000000
33.340930 0.000000
33.391067 0.000000
33.441203 0.000000
33.491340 0.000000
33.541477 0.000000
33.591613 0.000000
33.641750 0.000000
33.691887 0.000000
33.742024 0.000000
33.792160 0.000000
33.842297 0.000000
33.892434 0.000000
33.942571 0.000000
33.992707 0.000000
34.042844 0.000000
34.092981 0.000000
34.143118 0.000000
34.193254 0.000000
34.243391 0.000000
34.293528 0.000000
34.343665 0.000000
34.393801 0.000000
34.443938 0.000000
34.494075 0.000000
34.544211 0.000000
34.594348 0.000000
34.644485 0.000000
34.694622 0.000000
34.744758 0.000000
34.794895 0.000000
34.845032 0.000000
34.895169 0.000000
34.945305 0.000000
34.995442 0.000000
35.045579 0.000000
35.095716 0.000000
35.145852 0.000000
35.195989 0.000000
35.246126 0.000000
35.296263 0.000000
35.346399 0.000000
35.396536 0.000000
35.446673 0.000000
35.496809 0.000000
35.546946 0.000000
35.597083 0.000000
35.647220 0.000000
35.697356 0.000000
35.747493 0.000000
35.797630 0.000000
35.847767 0.000000
35.897903 0.000000
35.948040 0.000000
35.998177 0.000000
36.048314 0.000000
36.098450 0.000000
36.148587 0.000000
36.198724 0.000000
36.248861 0.000000
36.298997 0.000000
36.349134 0.000000
36.399271 0.000000
36.449407 0.000000
36.499544 0.000000
36.549681 0.000000
36.599818 0.000000
36.649954 0.000000
36.700091 0.000000
36.750228 0.000000
36.800365 0.000000
36.850501 0.000000
36.900638 0.000000
36.950775 0.000000
37.000912 0.000000
37.051048 0.000000
37.101185 0.000000
37.151322 0.000000
37.201459 0.000000
37.251595 0.000000
37.301732 0.000000
37.351869 0.000000
37.402005 0.000000
37.452142 0.000000
37.502279 0.000000
37.552416 0.000000
37.602552 0.000000
37.652689 0.000000
37.702826 0.000000
37.752963 0.000000
37.803099 0.000000
37.853236 0.000000
37.903373 0.000000
37.953510 0.000000
38.003646 0.000000
38.053783 0.000000
38.103920 0.000000
38.154057 0.000000
38.204193 0.000000
38.254330 0.000000
38.304467 0.000000
38.354603 0.000000
38.404740 0.000000
38.454877 0.000000
38.505014 0.000000
38.555150 0.000000
38.605287 0.000000
38.655424 0.000000
38.705561 0.000000
38.755697 0.000000
38.805834 0.000000
38.855971 0.000000
38.906108 0.000000
38.956244 0.000000
39.006381 0.000000
39.056518 0.000000
39.106655 0.000000
39.156791 0.000000
39.206928 0.000000
39.257065 0.000000
39.307201 0.000000
39.357338 0.000000
39.407475 0.000000
39.457612 0.000000
39.507748 0.000000
39.557885 0.000000
39.608022 0.000000
39.658159 0.000000
39.708295 0.000000
39.758432 0.000000
39.808569 0.000000
39.858706 0.000000
39.908842 0.000000
39.958979 0.000000
40.009116 0.000000
40.059253 0.000000
40.109389 0.000000
40.159526 0.000000
40.209663 0.000000
40.259799 0.000000
40.309936 0.000000
40.360073 0.000000
40.410210 0.000000
40.460346 0.000000
40.510483 0.000000
40.560620 0.000000
40.610757 0.000000
40.660893 0.000000
40.711030 0.000000
40.761167 0.000000
40.811304 0.000000
40.861440 0.000000
40.911577 0.000000
40.961714 0.000000
41.011851 0.000000
41.061987 0.000000
41.112124 0.000000
41.162261 0.000000
41.212397 0.000000
41.262534 0.000000
41.312671 0.000000
41.362808 0.000000
41.412944 0.000000
41.463081 0.000000
41.513218 0.000000
41.563355 0.000000
41.613491 0.000000
41.663628 0.000000
41.713765 0.000000
41.763902 0.000000
41.814038 0.000000
41.864175 0.000000
41.914312 0.000000
41.964448 0.000000
42.014585 0.000000
42.064722 0.000000
42.114859 0.000000
42.164995 0.000000
42.215132 0.000000
42.265269 0.000000
42.315406 0.000000
42.365542 0.000000
42.415679 0.000000
42.465816 0.000000
42.515953 0.000000
42.566089 0.000000
42.616226 0.000000
42.666363 0.000000
42.716500 0.000000
42.766636 0.000000
42.816773 0.000000
42.866910 0.000000
42.917046 0.000000
42.967183 0.000000
43.017320 0.000000
43.067457 0.000000
43.117593 0.000000
43.167730 0.000000
43.217867 0.000000
43.268004 0.000000
43.318140 0.000000
43.368277 0.000000
43.418414 0.000000
43.468551 0.000000
43.518687 0.000000
43.568824 0.000000
43.618961 0.000000
43.669098 0.000000
43.719234 0.000000
43.769371 0.000000
43.819508 0.000000
43.869644 0.000000
43.919781 0.000000
43.969918 0.000000
44.020055 0.000000
44.070191 0.000000
44.120328 0.000000
44.170465 0.000000
44.220602 0.000000
44.270738 0.000000
44.320875 0.000000
44.371012 0.000000
44.421149 0.000000
44.471285 0.000000
44.521422 0.000000
44.571559 0.000000
44.621696 0.000000
44.671832 0.000000
44.721969 0.000000
44.772106 0.000000
44.822242 0.000000
44.872379 0.000000
44.922516 0.000000
44.972653 0.000000
45.022789 0.000000
45.072926 0.000000
45.123063 0.000000
45.173200 0.000000
45.223336 0.000000
45.273473 0.000000
45.323610 0.000000
45.373747 0.000000
45.423883 0.000000
45.474020 0.000000
45.524157 0.000000
45.574294 0.000000
45.624430 0.000000
45.674567 0.000000
45.724704 0.000000
45.774840 0.000000
45.824977 0.000000
45.875114 0.000000
45.925251 0.000000
45.975387 0.000000
46.025524 0.000000
46.075661 0.000000
46.125798 0.000000
46.175934 0.000000
46.226071 0.000000
46.276208 0.000000
46.326345 0.000000
46.376481 0.000000
46.426618 0.000000
46.476755 0.000000
46.526892 0.000000
46.577028 0.000000
46.627165 0.000000
46.677302 0.000000
46.727438 0.000000
46.777575 0.000000
46.827712 0.000000
46.877849 0.000000
46.927985 0.000000
46.978122 0.000000
47.028259 0.000000
47.078396 0.000000
47.128532 0.000000
47.178669 0.000000
47.228806 0.000000
47.278943 0.000000
47.329079 0.000000
47.379216 0.000000
47.429353 0.000000
47.479490 0.000000
47.529626 0.000000
47.579763 0.000000
47.629900 0.000000
47.680036 0.000000
47.730173 0.000000
47.780310 0.000000
47.830447 0.000000
47.880583 0.000000
47.930720 0.000000
47.980857 0.000000
48.030994 0.000000
48.081130 0.000000
48.131267 0.000000
48.181404 0.000000
48.231541 0.000000
48.281677 0.000000
48.331814 0.000000
48.381951 0.000000
48.432088 0.000000
48.482224 0.000000
48.532361 0.000000
48.582498 0.000000
48.632634 0.000000
48.682771 0.000000
48.732908 0.000000
48.783045 0.000000
48.833181 0.000000
48.883318 0.000000
48.933455 0.000000
48.983592 0.000000
49.033728 0.000000
49.083865 0.000000
49.134002 0.000000
49.184139 0.000000
49.234275 0.000000
49.284412 0.000000
49.334549 0.000000
49.384686 0.000000
49.434822 0.000000
49.484959 0.000000
49.535096 0.000000
49.585232 0.000000
49.635369 0.000000
49.685506 0.000000
49.735643 0.000000
49.785779 0.000000
49.835916 0.000000
49.886053 0.000000
49.936190 0.000000
49.986326 0.000000
50.036463 0.000000
50.086600 0.000000
50.136737 0.000000
50.186873 0.000000
50.237010 0.000000
50.287147 0.000000
50.337284 0.000000
50.387420 0.000000
50.437557 0.000000
50.487694 0.000000
50.537830 0.000000
50.587967 0.000000
50.638104 0.000000
50.688241 0.000000
50.738377 0.000000
50.788514 0.000000
50.838651 0.000000
50.888788 0.000000
50.938924 0.000000
50.989061 0.000000
51.039198 0.000000
51.089335 0.000000
51.139471 0.000000
51.189608 0.000000
51.239745 0.000000
51.289881 0.000000
51.340018 0.000000
51.390155 0.000000
51.440292 0.000000
51.490428 0.000000
51.540565 0.000000
51.590702 0.000000
51.640839 0.000000
51.690975 0.000000
51.741112 0.000000
51.791249 0.000000
51.841386 0.000000
51.891522 0.000000
51.941659 0.000000
51.991796 0.000000
52.041933 0.000000
52.092069 0.000000
52.142206 0.000000
52.192343 0.000000
52.242479 0.000000
52.292616 0.000000
52.342753 0.000000
52.392890 0.000000
52.443026 0.000000
52.493163 0.000000
52.543300 0.000000
52.593437 0.000000
52.643573 0.000000
52.693710 0.000000
52.743847 0.000000
52.793984 0.000000
52.844120 0.000000
52.894257 0.000000
52.944394 0.000000
52.994531 0.000000
53.044667 0.000000
53.094804 0.000000
53.144941 0.000000
53.195077 0.000000
53.245214 0.000000
53.295351 0.000000
53.345488 0.000000
53.395624 0.000000
53.445761 0.000000
53.495898 0.000000
53.546035 0.000000
53.596171 0.000000
53.646308 0.000000
53.696445 0.000000
53.746582 0.000000
53.796718 0.000000
53.846855 0.000000
53.896992 0.000000
53.947129 0.000000
53.997265 0.000000
54.047402 0.000000
54.097539 0.000000
54.147675 0.000000
54.197812 0.000000
54.247949 0.000000
54.298086 0.000000
54.348222 0.000000
54.398359 0.000000
54.448496 0.000000
54.498633 0.000000
54.548769 0.000000
54.598906 0.000000
54.649043 0.000000
54.699180 0.000000
54.749316 0.000000
54.799453 0.000000
54.849590 0.000000
54.899727 0.000000
54.949863 0.000000
55.000000 0.000000
55.050137 0.000000
55.100273 0.000000
55.150410 0.000000
55.200547 0.000000
55.250684 0.000000
55.300820 0.000000
55.350957 0.000000
55.401094 0.000000
55.451231 0.000000
55.501367 0.000000
55.551504 0.000000
55.601641 0.000000
55.651778 0.000000
55.701914 0.000000
55.752051 0.000000
55.802188 0.000000
55.852325 0.000000
55.902461 0.000000
55.952598 0.000000
56.002735 0.000000
56.052871 0.000000
56.103008 0.000000
56.153145 0.000000
56.203282 0.000000
56.253418 0.000000
56.303555 0.000000
56.353692 0.000000
56.403829 0.000000
56.453965 0.000000
56.504102 0.000000
56.554239 0.000000
56.604376 0.000000
56.654512 0.000000
56.704649 0.000000
56.754786 0.000000
56.804923 0.000000
56.855059 0.000000
56.905196 0.000000
56.955333 0.000000
57.005469 0.000000
57.055606 0.000000
57.105743 0.000000
57.155880 0.000000
57.206016 0.000000
57.256153 0.000000
57.306290 0.000000
57.356427 0.000000
57.406563 0.000000
57.456700 0.000000
57.506837 0.000000
57.556974 0.000000
57.607110 0.000000
57.657247 0.000000
57.707384 0.000000
57.757521 0.000000
57.807657 0.000000
57.857794 0.000000
57.907931 0.000000
57.958067 0.000000
58.008204 0.000000
58.058341 0.000000
58.108478 0.000000
58.158614 0.000000
58.208751 0.000000
58.258888 0.000000
58.309025 0.000000
58.359161 0.000000
58.409298 0.000000
58.459435 0.000000
58.509572 0.000000
58.559708 0.000000
58.609845 0.000000
58.659982 0.000000
58.710119 0.000000
58.760255 0.000000
58.810392 0.000000
58.860529 0.000000
58.910665 0.000000
58.960802 0.000000
59.010939 0.000000
59.061076 0.000000
59.111212 0.000000
59.161349 0.000000
59.211486 0.000000
59.261623 0.000000
59.311759 0.000000
59.361896 0.000000
59.412033 0.000000
59.462170 0.000000
59.512306 0.000000
59.562443 0.000000
59.612580 0.000000
59.662716 0.000000
59.712853 0.000000
59.762990 0.000000
59.813127 0.000000
59.863263 0.000000
59.913400 0.000000
59.963537 0.000000
60.013674 0.000000
60.063810 0.000000
60.113947 0.000000
60.164084 0.000000
60.214221 0.000000
60.264357 0.000000
60.314494 0.000000
60.364631 0.000000
60.414768 0.000000
60.464904 0.000000
60.515041 0.000000
60.565178 0.000000
60.615314 0.000000
60.665451 0.000000
60.715588 0.000000
60.765725 0.000000
60.815861 0.000000
60.865998 0.000000
60.916135 0.000000
60.966272 0.000000
61.016408 0.000000
61.066545 0.000000
61.116682 0.000000
61.166819 0.000000
61.216955 0.000000
61.267092 0.000000
61.317229 0.000000
61.367366 0.000000
61.417502 0.000000
61.467639 0.000000
61.517776 0.000000
61.567912 0.000000
61.618049 0.000000
61.668186 0.000000
61.718323 0.000000
61.768459 0.000000
61.818596 0.000000
61.868733 0.000000
61.918870 0.000000
61.969006 0.000000
62.019143 0.000000
62.069280 0.000000
62.119417 0.000000
62.169553 0.000000
62.219690 0.000000
62.269827 0.000000
62.319964 0.000000
62.370100 0.000000
62.420237 0.000000
62.470374 0.000000
62.520510 0.000000
62.570647 0.000000
62.620784 0.000000
62.670921 0.000000
62.721057 0.000000
62.771194 0.000000
62.821331 0.000000
62.871468 0.000000
62.921604 0.000000
62.971741 0.000000
63.021878 0.000000
63.072015 0.000000
63.122151 0.000000
63.172288 0.000000
63.222425 0.000000
63.272562 0.000000
63.322698 0.000000
63.372835 0.000000
63.422972 0.000000
63.473108 0.000000
63.523245 0.000000
63.573382 0.000000
63.623519 0.000000
63.673655 0.000000
63.723792 0.000000
63.773929 0.000000
63.824066 0.000000
63.874202 0.000000
63.924339 0.000000
63.974476 0.000000
64.024613 0.000000
64.074749 0.000000
64.124886 0.000000
64.175023 0.000000
64.225160 0.000000
64.275296 0.000000
64.325433 0.000000
64.375570 0.000000
64.425706 0.000000
64.475843 0.000000
64.525980 0.000000
64.576117 0.000000
64.626253 0.000000
64.676390 0.000000
64.726527 0.000000
64.776664 0.000000
64.826800 0.000000
64.876937 0.000000
64.927074 0.000000
64.977211 0.000000
65.027347 0.000000
65.077484 0.000000
65.127621 0.000000
65.177758 0.000000
65.227894 0.000000
65.278031 0.000000
65.328168 0.000000
65.378304 0.000000
65.428441 0.000000
65.478578 0.000000
65.528715 0.000000
65.578851 0.000000
65.628988 0.000000
65.679125 0.000000
65.729262 0.000000
65.779398 0.000000
65.829535 0.000000
65.879672 0.000000
65.929809 0.000000
65.979945 0.000000
66.030082 0.000000
66.080219 0.000000
66.130356 0.000000
66.180492 0.000000
66.230629 0.000000
66.280766 0.000000
66.330902 0.000000
66.381039 0.000000
66.431176 0.000000
66.481313 0.000000
66.531449 0.000000
66.581586 0.000000
66.631723 0.000000
66.681860 0.000000
66.731996 0.000000
66.782133 0.000000
66.832270 0.000000
66.882407 0.000000
66.932543 0.000000
66.982680 0.000000
67.032817 0.000000
67.082954 0.000000
67.133090 0.000000
67.183227 0.000000
67.233364 0.000000
67.283500 0.000000
67.333637 0.000000
67.383774 0.000000
67.433911 0.000000
67.484047 0.000000
67.534184 0.000000
67.584321 0.000000
67.634458 0.000000
67.684594 0.000000
67.734731 0.000000
67.784868 0.000000
67.835005 0.000000
67.885141 0.000000
67.935278 0.000000
67.985415 0.000000
68.035552 0.000000
68.085688 0.000000
68.135825 0.000000
68.185962 0.000000
68.236098 0.000000
68.286235 0.000000
68.336372 0.000000
68.386509 0.000000
68.436645 0.000000
68.486782 0.000000
68.536919 0.000000
68.587056 0.000000
68.637192 0.000000
68.687329 0.000000
68.737466 0.000000
68.787603 0.000000
68.837739 0.000000
68.887876 0.000000
68.938013 0.000000
68.988149 0.000000
69.038286 0.000000
69.088423 0.000000
69.138560 32.000000
69.188696 0.000000
69.238833 0.000000
69.288970 0.000000
69.339107 0.000000
69.389243 0.000000
69.439380 0.000000
69.489517 0.000000
69.539654 0.000000
69.589790 0.000000
69.639927 0.000000
69.690064 0.000000
69.740201 0.000000
69.790337 0.000000
69.840474 0.000000
69.890611 0.000000
69.940747 0.000000
69.990884 0.000000
70.041021 0.000000
70.091158 0.000000
70.141294 0.000000
70.191431 0.000000
70.241568 0.000000
70.291705 0.000000
70.341841 0.000000
70.391978 0.000000
70.442115 0.000000
70.492252 0.000000
70.542388 2.000000
70.592525 7.000000
70.642662 0.000000
70.692799 0.000000
70.742935 0.000000
70.793072 0.000000
70.843209 0.000000
70.893345 0.000000
70.943482 0.000000
70.993619 0.000000
71.043756 0.000000
71.093892 0.000000
71.144029 0.000000
71.194166 0.000000
71.244303 0.000000
71.294439 0.000000
71.344576 0.000000
71.394713 0.000000
71.444850 0.000000
71.494986 0.000000
71.545123 0.000000
71.595260 0.000000
71.645397 0.000000
71.695533 0.000000
71.745670 0.000000
71.795807 0.000000
71.845943 0.000000
71.896080 0.000000
71.946217 0.000000
71.996354 0.000000
72.046490 0.000000
72.096627 0.000000
72.146764 0.000000
72.196901 0.000000
72.247037 0.000000
72.297174 0.000000
72.347311 0.000000
72.397448 0.000000
72.447584 0.000000
72.497721 0.000000
72.547858 0.000000
72.597995 0.000000
72.648131 0.000000
72.698268 0.000000
72.748405 0.000000
72.798541 0.000000
72.848678 0.000000
72.898815 0.000000
72.948952 0.000000
72.999088 0.000000
73.049225 0.000000
73.099362 0.000000
73.149499 0.000000
73.199635 0.000000
73.249772 0.000000
73.299909 0.000000
73.350046 0.000000
73.400182 0.000000
73.450319 0.000000
73.500456 0.000000
73.550593 0.000000
73.600729 0.000000
73.650866 0.000000
73.701003 0.000000
73.751139 0.000000
73.801276 0.000000
73.851413 0.000000
73.901550 0.000000
73.951686 0.000000
74.001823 0.000000
74.051960 0.000000
74.102097 0.000000
74.152233 0.000000
74.202370 0.000000
74.252507 0.000000
74.302644 0.000000
74.352780 0.000000
74.402917 0.000000
74.453054 0.000000
74.503191 0.000000
74.553327 0.000000
74.603464 0.000000
74.653601 0.000000
74.703737 0.000000
74.753874 0.000000
74.804011 0.000000
74.854148 0.000000
74.904284 0.000000
74.954421 0.000000
75.004558 0.000000
75.054695 0.000000
75.104831 0.000000
75.154968 0.000000
75.205105 0.000000
75.255242 0.000000
75.305378 0.000000
75.355515 0.000000
75.405652 0.000000
75.455789 0.000000
75.505925 0.000000
75.556062 0.000000
75.606199 0.000000
75.656335 0.000000
75.706472 0.000000
75.756609 0.000000
75.806746 0.000000
75.856882 0.000000
75.907019 0.000000
75.957156 0.000000
76.007293 0.000000
76.057429 0.000000
76.107566 0.000000
76.157703 0.000000
76.207840 0.000000
76.257976 0.000000
76.308113 0.000000
76.358250 0.000000
76.408387 0.000000
76.458523 0.000000
76.508660 0.000000
76.558797 0.000000
76.608933 30.000000
76.659070 86.000000
76.709207 0.000000
76.759344 0.000000
76.809480 0.000000
76.859617 0.000000
76.909754 0.000000
76.959891 0.000000
77.010027 0.000000
77.060164 26.000000
77.110301 78.000000
77.160438 0.000000
77.210574 0.000000
77.260711 0.000000
77.310848 0.000000
77.360985 0.000000
77.411121 0.000000
77.461258 65.000000
77.511395 77.000000
77.561531 0.000000
77.611668 0.000000
77.661805 0.000000
77.711942 0.000000
77.762078 0.000000
77.812215 0.000000
77.862352 0.000000
77.912489 0.000000
77.962625 0.000000
78.012762 0.000000
78.062899 0.000000
78.113036 0.000000
78.163172 0.000000
78.213309 0.000000
78.263446 0.000000
78.313582 0.000000
78.363719 0.000000
78.413856 0.000000
78.463993 0.000000
78.514129 0.000000
78.564266 0.000000
78.614403 0.000000
78.664540 0.000000
78.714676 0.000000
78.764813 0.000000
78.814950 0.000000
78.865087 0.000000
78.915223 0.000000
78.965360 0.000000
79.015497 0.000000
79.065634 0.000000
79.115770 0.000000
79.165907 0.000000
79.216044 0.000000
79.266180 0.000000
79.316317 0.000000
79.366454 0.000000
79.416591 0.000000
79.466727 0.000000
79.516864 0.000000
79.567001 0.000000
79.617138 0.000000
79.667274 0.000000
79.717411 0.000000
79.767548 0.000000
79.817685 0.000000
79.867821 0.000000
79.917958 0.000000
79.968095 0.000000
80.018232 0.000000
80.068368 0.000000
80.118505 0.000000
80.168642 0.000000
80.218778 0.000000
80.268915 0.000000
80.319052 0.000000
80.369189 0.000000
80.419325 0.000000
80.469462 0.000000
80.519599 0.000000
80.569736 0.000000
80.619872 0.000000
80.670009 0.000000
80.720146 0.000000
80.770283 0.000000
80.820419 0.000000
80.870556 0.000000
80.920693 0.000000
80.970830 0.000000
81.020966 0.000000
81.071103 0.000000
81.121240 0.000000
81.171376 0.000000
81.221513 0.000000
81.271650 0.000000
81.321787 0.000000
81.371923 0.000000
81.422060 0.000000
81.472197 0.000000
81.522334 0.000000
81.572470 0.000000
81.622607 0.000000
81.672744 0.000000
81.722881 0.000000
81.773017 0.000000
81.823154 0.000000
81.873291 0.000000
81.923428 0.000000
81.973564 0.000000
82.023701 0.000000
82.073838 0.000000
82.123974 0.000000
82.174111 0.000000
82.224248 0.000000
82.274385 0.000000
82.324521 0.000000
82.374658 0.000000
82.424795 0.000000
82.474932 0.000000
82.525068 0.000000
82.575205 0.000000
82.625342 0.000000
82.675479 0.000000
82.725615 0.000000
82.775752 0.000000
82.825889 0.000000
82.876026 0.000000
82.926162 0.000000
82.976299 0.000000
83.026436 0.000000
83.076572 0.000000
83.126709 0.000000
83.176846 0.000000
83.226983 0.000000
83.277119 0.000000
83.327256 0.000000
83.377393 0.000000
83.427530 0.000000
83.477666 0.000000
83.527803 0.000000
83.577940 0.000000
83.628077 0.000000
83.678213 0.000000
83.728350 0.000000
83.778487 0.000000
83.828624 0.000000
83.878760 0.000000
83.928897 0.000000
83.979034 0.000000
84.029170 0.000000
84.079307 0.000000
84.129444 0.000000
84.179581 0.000000
84.229717 0.000000
84.279854 0.000000
84.329991 0.000000
84.380128 0.000000
84.430264 0.000000
84.480401 0.000000
84.530538 0.000000
84.580675 0.000000
84.630811 0.000000
84.680948 0.000000
84.731085 0.000000
84.781222 0.000000
84.831358 0.000000
84.881495 0.000000
84.931632 0.000000
84.981768 0.000000
85.031905 0.000000
85.082042 0.000000
85.132179 0.000000
85.182315 0.000000
85.232452 0.000000
85.282589 0.000000
85.332726 0.000000
85.382862 0.000000
85.432999 0.000000
85.483136 0.000000
85.533273 0.000000
85.583409 0.000000
85.633546 0.000000
85.683683 0.000000
85.733820 0.000000
85.783956 0.000000
85.834093 0.000000
85.884230 0.000000
85.934366 0.000000
85.984503 0.000000
86.034640 0.000000
86.084777 0.000000
86.134913 0.000000
86.185050 0.000000
86.235187 0.000000
86.285324 0.000000
86.335460 0.000000
86.385597 0.000000
86.435734 0.000000
86.485871 0.000000
86.536007 0.000000
86.586144 0.000000
86.636281 0.000000
86.686418 0.000000
86.736554 0.000000
86.786691 0.000000
86.836828 0.000000
86.886964 0.000000
86.937101 0.000000
86.987238 0.000000
87.037375 0.000000
87.087511 0.000000
87.137648 0.000000
87.187785 0.000000
87.237922 0.000000
87.288058 0.000000
87.338195 0.000000
87.388332 0.000000
87.438469 0.000000
87.488605 0.000000
87.538742 0.000000
87.588879 0.000000
87.639015 0.000000
87.689152 0.000000
87.739289 0.000000
87.789426 0.000000
87.839562 0.000000
87.889699 0.000000
87.939836 0.000000
87.989973 0.000000
88.040109 0.000000
88.090246 0.000000
88.140383 0.000000
88.190520 0.000000
88.240656 0.000000
88.290793 0.000000
88.340930 0.000000
88.391067 0.000000
88.441203 0.000000
88.491340 0.000000
88.541477 0.000000
88.591613 0.000000
88.641750 0.000000
88.691887 0.000000
88.742024 0.000000
88.792160 0.000000
88.842297 0.000000
88.892434 0.000000
88.942571 0.000000
88.992707 0.000000
89.042844 0.000000
89.092981 0.000000
89.143118 0.000000
89.193254 0.000000
89.243391 0.000000
89.293528 0.000000
89.343665 0.000000
89.393801 0.000000
89.443938 0.000000
89.494075 0.000000
89.544211 0.000000
89.594348 0.000000
89.644485 0.000000
89.694622 0.000000
89.744758 0.000000
89.794895 0.000000
89.845032 0.000000
89.895169 0.000000
89.945305 0.000000
89.995442 0.000000
90.045579 0.000000
90.095716 0.000000
90.145852 0.000000
90.195989 0.000000
90.246126 0.000000
90.296263 0.000000
90.346399 0.000000
90.396536 0.000000
90.446673 0.000000
90.496809 0.000000
90.546946 0.000000
90.597083 0.000000
90.647220 0.000000
90.697356 0.000000
90.747493 0.000000
90.797630 0.000000
90.847767 0.000000
90.897903 0.000000
90.948040 0.000000
90.998177 0.000000
91.048314 0.000000
91.098450 0.000000
91.148587 0.000000
91.198724 0.000000
91.248861 0.000000
91.298997 0.000000
91.349134 0.000000
91.399271 0.000000
91.449407 0.000000
91.499544 0.000000
91.549681 0.000000
91.599818 0.000000
91.649954 0.000000
91.700091 0.000000
91.750228 0.000000
91.800365 0.000000
91.850501 0.000000
91.900638 0.000000
91.950775 0.000000
92.000912 0.000000
92.051048 0.000000
92.101185 0.000000
92.151322 0.000000
92.201459 0.000000
92.251595 0.000000
92.301732 0.000000
92.351869 0.000000
92.402005 0.000000
92.452142 0.000000
92.502279 0.000000
92.552416 0.000000
92.602552 0.000000
92.652689 0.000000
92.702826 0.000000
92.752963 0.000000
92.803099 0.000000
92.853236 0.000000
92.903373 0.000000
92.953510 0.000000
93.003646 0.000000
93.053783 0.000000
93.103920 0.000000
93.154057 0.000000
93.204193 0.000000
93.254330 0.000000
93.304467 0.000000
93.354603 0.000000
93.404740 0.000000
93.454877 0.000000
93.505014 0.000000
93.555150 0.000000
93.605287 0.000000
93.655424 0.000000
93.705561 0.000000
93.755697 0.000000
93.805834 0.000000
93.855971 0.000000
93.906108 0.000000
93.956244 0.000000
94.006381 0.000000
94.056518 0.000000
94.106655 0.000000
94.156791 0.000000
94.206928 0.000000
94.257065 0.000000
94.307201 0.000000
94.357338 0.000000
94.407475 0.000000
94.457612 0.000000
94.507748 0.000000
94.557885 0.000000
94.608022 0.000000
94.658159 0.000000
94.708295 0.000000
94.758432 0.000000
94.808569 0.000000
94.858706 0.000000
94.908842 0.000000
94.958979 0.000000
95.009116 0.000000
95.059253 0.000000
95.109389 0.000000
95.159526 0.000000
95.209663 0.000000
95.259799 0.000000
95.309936 0.000000
95.360073 0.000000
95.410210 0.000000
95.460346 0.000000
95.510483 0.000000
95.560620 0.000000
95.610757 0.000000
95.660893 0.000000
95.711030 0.000000
95.761167 0.000000
95.811304 0.000000
95.861440 0.000000
95.911577 0.000000
95.961714 0.000000
96.011851 0.000000
96.061987 0.000000
96.112124 0.000000
96.162261 0.000000
96.212397 0.000000
96.262534 0.000000
96.312671 0.000000
96.362808 0.000000
96.412944 0.000000
96.463081 0.000000
96.513218 0.000000
96.563355 0.000000
96.613491 0.000000
96.663628 0.000000
96.713765 0.000000
96.763902 0.000000
96.814038 0.000000
96.864175 0.000000
96.914312 0.000000
96.964448 0.000000
97.014585 0.000000
97.064722 0.000000
97.114859 0.000000
97.164995 0.000000
97.215132 0.000000
97.265269 0.000000
97.315406 0.000000
97.365542 0.000000
97.415679 0.000000
97.465816 0.000000
97.515953 0.000000
97.566089 0.000000
97.616226 0.000000
97.666363 0.000000
97.716500 0.000000
97.766636 0.000000
97.816773 0.000000
97.866910 0.000000
97.917046 0.000000
97.967183 0.000000
98.017320 0.000000
98.067457 0.000000
98.117593 0.000000
98.167730 0.000000
98.217867 0.000000
98.268004 0.000000
98.318140 0.000000
98.368277 0.000000
98.418414 0.000000
98.468551 0.000000
98.518687 0.000000
98.568824 0.000000
98.618961 0.000000
98.669098 0.000000
98.719234 0.000000
98.769371 0.000000
98.819508 0.000000
98.869644 0.000000
98.919781 0.000000
98.969918 0.000000
99.020055 0.000000
99.070191 0.000000
99.120328 0.000000
99.170465 0.000000
99.220602 0.000000
99.270738 0.000000
99.320875 0.000000
99.371012 0.000000
99.421149 0.000000
99.471285 0.000000
99.521422 0.000000
99.571559 0.000000
99.621696 0.000000
99.671832 0.000000
99.721969 0.000000
99.772106 0.000000
99.822242 0.000000
99.872379 0.000000
99.922516 0.000000
99.972653 0.000000
100.022789 0.000000
100.072926 0.000000
100.123063 0.000000
100.173200 0.000000
100.223336 0.000000
100.273473 0.000000
100.323610 0.000000
100.373747 0.000000
100.423883 0.000000
100.474020 0.000000
100.524157 0.000000
100.574294 0.000000
100.624430 0.000000
100.674567 0.000000
100.724704 0.000000
100.774840 0.000000
100.824977 0.000000
100.875114 0.000000
100.925251 0.000000
100.975387 0.000000
101.025524 0.000000
101.075661 0.000000
101.125798 0.000000
101.175934 0.000000
101.226071 0.000000
101.276208 0.000000
101.326345 0.000000
101.376481 0.000000
101.426618 0.000000
101.476755 0.000000
101.526892 0.000000
101.577028 0.000000
101.627165 0.000000
101.677302 0.000000
101.727438 0.000000
101.777575 0.000000
101.827712 0.000000
101.877849 0.000000
101.927985 0.000000
101.978122 0.000000
102.028259 0.000000
102.078396 0.000000
102.128532 0.000000
102.178669 0.000000
102.228806 0.000000
102.278943 0.000000
102.329079 0.000000
102.379216 0.000000
102.429353 0.000000
102.479490 0.000000
102.529626 0.000000
102.579763 0.000000
102.629900 0.000000
102.680036 0.000000
102.730173 0.000000
102.780310 0.000000
102.830447 0.000000
102.880583 0.000000
102.930720 0.000000
102.980857 0.000000
103.030994 0.000000
103.081130 0.000000
103.131267 0.000000
103.181404 0.000000
103.231541 0.000000
103.281677 0.000000
103.331814 0.000000
103.381951 0.000000
103.432088 0.000000
103.482224 0.000000
103.532361 0.000000
103.582498 0.000000
103.632634 0.000000
103.682771 0.000000
103.732908 0.000000
103.783045 0.000000
103.833181 0.000000
103.883318 0.000000
103.933455 0.000000
103.983592 0.000000
104.033728 0.000000
104.083865 0.000000
104.134002 0.000000
104.184139 0.000000
104.234275 0.000000
104.284412 0.000000
104.334549 0.000000
104.384686 0.000000
104.434822 0.000000
104.484959 0.000000
104.535096 0.000000
104.585232 0.000000
104.635369 0.000000
104.685506 0.000000
104.735643 0.000000
104.785779 0.000000
104.835916 0.000000
104.886053 0.000000
104.936190 0.000000
104.986326 0.000000
105.036463 0.000000
105.086600 0.000000
105.136737 0.000000
105.186873 0.000000
105.237010 0.000000
105.287147 0.000000
105.337284 0.000000
105.387420 0.000000
105.437557 0.000000
105.487694 0.000000
105.537830 0.000000
105.587967 0.000000
105.638104 0.000000
105.688241 0.000000
105.738377 0.000000
105.788514 0.000000
105.838651 0.000000
105.888788 0.000000
105.938924 0.000000
105.989061 0.000000
106.039198 0.000000
106.089335 0.000000
106.139471 0.000000
106.189608 0.000000
106.239745 0.000000
106.289881 0.000000
106.340018 0.000000
106.390155 0.000000
106.440292 0.000000
106.490428 0.000000
106.540565 0.000000
106.590702 0.000000
106.640839 0.000000
106.690975 0.000000
106.741112 0.000000
106.791249 0.000000
106.841386 0.000000
106.891522 0.000000
106.941659 0.000000
106.991796 0.000000
107.041933 0.000000
107.092069 0.000000
107.142206 0.000000
107.192343 0.000000
107.242479 0.000000
107.292616 0.000000
107.342753 0.000000
107.392890 0.000000
107.443026 0.000000
107.493163 0.000000
107.543300 0.000000
107.593437 0.000000
107.643573 0.000000
107.693710 0.000000
107.743847 0.000000
107.793984 0.000000
107.844120 0.000000
107.894257 0.000000
107.944394 0.000000
107.994531 0.000000
108.044667 0.000000
108.094804 0.000000
108.144941 0.000000
108.195077 0.000000
108.245214 0.000000
108.295351 0.000000
108.345488 0.000000
108.395624 0.000000
108.445761 0.000000
108.495898 0.000000
108.546035 0.000000
108.596171 0.000000
108.646308 0.000000
108.696445 0.000000
108.746582 0.000000
108.796718 0.000000
108.846855 0.000000
108.896992 0.000000
108.947129 0.000000
108.997265 0.000000
109.047402 0.000000
109.097539 0.000000
109.147675 0.000000
109.197812 0.000000
109.247949 0.000000
109.298086 0.000000
109.348222 0.000000
109.398359 0.000000
109.448496 0.000000
109.498633 0.000000
109.548769 0.000000
109.598906 0.000000
109.649043 0.000000
109.699180 0.000000
109.749316 0.000000
109.799453 0.000000
109.849590 0.000000
109.899727 0.000000
109.949863 0.000000
110.000000 0.000000
110.050137 0.000000
110.100273 0.000000
110.150410 0.000000
110.200547 0.000000
110.250684 0.000000
110.300820 0.000000
110.350957 0.000000
110.401094 0.000000
110.451231 0.000000
110.501367 0.000000
110.551504 0.000000
110.601641 0.000000
110.651778 0.000000
110.701914 0.000000
110.752051 0.000000
110.802188 0.000000
110.852325 0.000000
110.902461 0.000000
110.952598 0.000000
111.002735 0.000000
111.052871 0.000000
111.103008 0.000000
111.153145 0.000000
111.203282 0.000000
111.253418 0.000000
111.303555 0.000000
111.353692 0.000000
111.403829 0.000000
111.453965 0.000000
111.504102 0.000000
111.554239 0.000000
111.604376 0.000000
111.654512 0.000000
111.704649 0.000000
111.754786 0.000000
111.804923 0.000000
111.855059 0.000000
111.905196 0.000000
111.955333 0.000000
112.005469 0.000000
112.055606 0.000000
112.105743 0.000000
112.155880 0.000000
112.206016 0.000000
112.256153 0.000000
112.306290 0.000000
112.356427 0.000000
112.406563 0.000000
112.456700 0.000000
112.506837 0.000000
112.556974 0.000000
112.607110 0.000000
112.657247 0.000000
112.707384 0.000000
112.757521 0.000000
112.807657 0.000000
112.857794 0.000000
112.907931 0.000000
112.958067 0.000000
113.008204 0.000000
113.058341 0.000000
113.108478 0.000000
113.158614 0.000000
113.208751 0.000000
113.258888 0.000000
113.309025 0.000000
113.359161 0.000000
113.409298 0.000000
113.459435 0.000000
113.509572 0.000000
113.559708 0.000000
113.609845 0.000000
113.659982 0.000000
113.710119 0.000000
113.760255 0.000000
113.810392 0.000000
113.860529 0.000000
113.910665 0.000000
113.960802 0.000000
114.010939 0.000000
114.061076 0.000000
114.111212 0.000000
114.161349 0.000000
114.211486 0.000000
114.261623 0.000000
114.311759 0.000000
114.361896 0.000000
114.412033 0.000000
114.462170 0.000000
114.512306 0.000000
114.562443 0.000000
114.612580 0.000000
114.662716 0.000000
114.712853 0.000000
114.762990 0.000000
114.813127 0.000000
114.863263 0.000000
114.913400 0.000000
114.963537 0.000000
115.013674 0.000000
115.063810 0.000000
115.113947 0.000000
115.164084 0.000000
115.214221 0.000000
115.264357 0.000000
115.314494 0.000000
115.364631 0.000000
115.414768 0.000000
115.464904 0.000000
115.515041 0.000000
115.565178 0.000000
115.615314 0.000000
115.665451 0.000000
115.715588 0.000000
115.765725 0.000000
115.815861 0.000000
115.865998 0.000000
115.916135 0.000000
115.966272 0.000000
116.016408 0.000000
116.066545 0.000000
116.116682 0.000000
116.166819 0.000000
116.216955 0.000000
116.267092 0.000000
116.317229 0.000000
116.367366 0.000000
116.417502 0.000000
116.467639 0.000000
116.517776 0.000000
116.567912 0.000000
116.618049 0.000000
116.668186 0.000000
116.718323 0.000000
116.768459 0.000000
116.818596 0.000000
116.868733 0.000000
116.918870 0.000000
116.969006 0.000000
117.019143 0.000000
117.069280 0.000000
117.119417 0.000000
117.169553 0.000000
117.219690 0.000000
117.269827 0.000000
117.319964 0.000000
117.370100 0.000000
117.420237 0.000000
117.470374 0.000000
117.520510 0.000000
117.570647 0.000000
117.620784 0.000000
117.670921 0.000000
117.721057 0.000000
117.771194 0.000000
117.821331 0.000000
117.871468 0.000000
117.921604 0.000000
117.971741 0.000000
118.021878 0.000000
118.072015 0.000000
118.122151 0.000000
118.172288 0.000000
118.222425 0.000000
118.272562 0.000000
118.322698 0.000000
118.372835 0.000000
118.422972 0.000000
118.473108 0.000000
118.523245 0.000000
118.573382 0.000000
118.623519 0.000000
118.673655 0.000000
118.723792 0.000000
118.773929 0.000000
118.824066 0.000000
118.874202 0.000000
118.924339 0.000000
118.974476 0.000000
119.024613 0.000000
119.074749 0.000000
119.124886 0.000000
119.175023 0.000000
119.225160 0.000000
119.275296 0.000000
119.325433 0.000000
119.375570 0.000000
119.425706 0.000000
119.475843 0.000000
119.525980 0.000000
119.576117 0.000000
119.626253 0.000000
119.676390 0.000000
119.726527 0.000000
119.776664 0.000000
119.826800 0.000000
119.876937 0.000000
119.927074 0.000000
119.977211 0.000000
120.027347 0.000000
120.077484 0.000000
120.127621 0.000000
120.177758 0.000000
120.227894 0.000000
120.278031 0.000000
120.328168 0.000000
120.378304 0.000000
120.428441 0.000000
120.478578 0.000000
120.528715 0.000000
120.578851 0.000000
120.628988 0.000000
120.679125 0.000000
120.729262 0.000000
120.779398 0.000000
120.829535 0.000000
120.879672 0.000000
120.929809 0.000000
120.979945 0.000000
121.030082 0.000000
121.080219 0.000000
121.130356 0.000000
121.180492 0.000000
121.230629 0.000000
121.280766 0.000000
121.330902 0.000000
121.381039 0.000000
121.431176 0.000000
121.481313 0.000000
121.531449 0.000000
121.581586 0.000000
121.631723 0.000000
121.681860 0.000000
121.731996 0.000000
121.782133 0.000000
121.832270 0.000000
121.882407 0.000000
121.932543 0.000000
121.982680 0.000000
122.032817 0.000000
122.082954 0.000000
122.133090 0.000000
122.183227 0.000000
122.233364 0.000000
122.283500 0.000000
122.333637 0.000000
122.383774 0.000000
122.433911 0.000000
122.484047 0.000000
122.534184 0.000000
122.584321 0.000000
122.634458 0.000000
122.684594 0.000000
122.734731 0.000000
122.784868 0.000000
122.835005 0.000000
122.885141 0.000000
122.935278 0.000000
122.985415 0.000000
123.035552 0.000000
123.085688 0.000000
123.135825 0.000000
123.185962 0.000000
123.236098 0.000000
123.286235 0.000000
123.336372 0.000000
123.386509 0.000000
123.436645 0.000000
123.486782 0.000000
123.536919 0.000000
123.587056 0.000000
123.637192 0.000000
123.687329 0.000000
123.737466 0.000000
123.787603 0.000000
123.837739 0.000000
123.887876 0.000000
123.938013 0.000000
123.988149 0.000000
124.038286 0.000000
124.088423 0.000000
124.138560 0.000000
124.188696 0.000000
124.238833 0.000000
124.288970 0.000000
124.339107 0.000000
124.389243 0.000000
124.439380 0.000000
124.489517 0.000000
124.539654 0.000000
124.589790 0.000000
124.639927 0.000000
124.690064 0.000000
124.740201 0.000000
124.790337 0.000000
124.840474 0.000000
124.890611 0.000000
124.940747 0.000000
124.990884 0.000000
125.041021 0.000000
125.091158 0.000000
125.141294 0.000000
125.191431 0.000000
125.241568 0.000000
125.291705 0.000000
125.341841 0.000000
125.391978 0.000000
125.442115 0.000000
125.492252 0.000000
125.542388 0.000000
125.592525 0.000000
125.642662 0.000000
125.692799 0.000000
125.742935 0.000000
125.793072 0.000000
125.843209 0.000000
125.893345 0.000000
125.943482 0.000000
125.993619 0.000000
126.043756 0.000000
126.093892 0.000000
126.144029 0.000000
126.194166 0.000000
126.244303 0.000000
126.294439 0.000000
126.344576 0.000000
126.394713 0.000000
126.444850 0.000000
126.494986 0.000000
126.545123 0.000000
126.595260 0.000000
126.645397 0.000000
126.695533 0.000000
126.745670 0.000000
126.795807 0.000000
126.845943 0.000000
126.896080 0.000000
126.946217 0.000000
126.996354 0.000000
127.046490 0.000000
127.096627 0.000000
127.146764 0.000000
127.196901 0.000000
127.247037 0.000000
127.297174 0.000000
127.347311 0.000000
127.397448 0.000000
127.447584 0.000000
127.497721 0.000000
127.547858 0.000000
127.597995 0.000000
127.648131 0.000000
127.698268 0.000000
127.748405 0.000000
127.798541 0.000000
127.848678 0.000000
127.898815 0.000000
127.948952 0.000000
127.999088 0.000000
128.049225 0.000000
128.099362 0.000000
128.149499 0.000000
128.199635 0.000000
128.249772 0.000000
128.299909 0.000000
128.350046 0.000000
128.400182 0.000000
128.450319 0.000000
128.500456 0.000000
128.550593 0.000000
128.600729 0.000000
128.650866 0.000000
128.701003 0.000000
128.751139 0.000000
128.801276 0.000000
128.851413 0.000000
128.901550 0.000000
128.951686 0.000000
129.001823 0.000000
129.051960 0.000000
129.102097 0.000000
129.152233 0.000000
129.202370 0.000000
129.252507 0.000000
129.302644 0.000000
129.352780 0.000000
129.402917 0.000000
129.453054 0.000000
129.503191 0.000000
129.553327 0.000000
129.603464 0.000000
129.653601 0.000000
129.703737 0.000000
129.753874 0.000000
129.804011 0.000000
129.854148 0.000000
129.904284 0.000000
129.954421 0.000000
130.004558 0.000000
130.054695 0.000000
130.104831 0.000000
130.154968 0.000000
130.205105 0.000000
130.255242 0.000000
130.305378 0.000000
130.355515 0.000000
130.405652 0.000000
130.455789 0.000000
130.505925 0.000000
130.556062 0.000000
130.606199 0.000000
130.656335 0.000000
130.706472 0.000000
130.756609 0.000000
130.806746 0.000000
130.856882 0.000000
130.907019 0.000000
130.957156 0.000000
131.007293 0.000000
131.057429 0.000000
131.107566 0.000000
131.157703 0.000000
131.207840 0.000000
131.257976 0.000000
131.308113 0.000000
131.358250 0.000000
131.408387 0.000000
131.458523 0.000000
131.508660 0.000000
131.558797 0.000000
131.608933 0.000000
131.659070 0.000000
131.709207 0.000000
131.759344 0.000000
131.809480 0.000000
131.859617 0.000000
131.909754 0.000000
131.959891 0.000000
132.010027 0.000000
132.060164 0.000000
132.110301 0.000000
132.160438 0.000000
132.210574 0.000000
132.260711 0.000000
132.310848 0.000000
132.360985 0.000000
132.411121 0.000000
132.461258 0.000000
132.511395 0.000000
132.561531 0.000000
132.611668 0.000000
132.661805 0.000000
132.711942 0.000000
132.762078 0.000000
132.812215 0.000000
132.862352 0.000000
132.912489 0.000000
132.962625 0.000000
133.012762 0.000000
133.062899 0.000000
133.113036 0.000000
133.163172 0.000000
133.213309 0.000000
133.263446 0.000000
133.313582 0.000000
133.363719 0.000000
133.413856 0.000000
133.463993 0.000000
133.514129 0.000000
133.564266 0.000000
133.614403 0.000000
133.664540 0.000000
133.714676 0.000000
133.764813 0.000000
133.814950 0.000000
133.865087 0.000000
133.915223 0.000000
133.965360 0.000000
134.015497 0.000000
134.065634 0.000000
134.115770 0.000000
134.165907 0.000000
134.216044 0.000000
134.266180 0.000000
134.316317 0.000000
134.366454 0.000000
134.416591 0.000000
134.466727 0.000000
134.516864 0.000000
134.567001 0.000000
134.617138 0.000000
134.667274 0.000000
134.717411 0.000000
134.767548 0.000000
134.817685 0.000000
134.867821 0.000000
134.917958 0.000000
134.968095 0.000000
135.018232 0.000000
135.068368 0.000000
135.118505 0.000000
135.168642 0.000000
135.218778 0.000000
135.268915 0.000000
135.319052 0.000000
135.369189 0.000000
135.419325 0.000000
135.469462 0.000000
135.519599 0.000000
135.569736 0.000000
135.619872 0.000000
135.670009 0.000000
135.720146 0.000000
135.770283 0.000000
135.820419 0.000000
135.870556 0.000000
135.920693 0.000000
135.970830 0.000000
136.020966 0.000000
136.071103 0.000000
136.121240 0.000000
136.171376 0.000000
136.221513 0.000000
136.271650 0.000000
136.321787 0.000000
136.371923 0.000000
136.422060 0.000000
136.472197 0.000000
136.522334 0.000000
136.572470 0.000000
136.622607 0.000000
136.672744 0.000000
136.722881 0.000000
136.773017 0.000000
136.823154 0.000000
136.873291 0.000000
136.923428 0.000000
136.973564 0.000000
137.023701 0.000000
137.073838 0.000000
137.123974 0.000000
137.174111 0.000000
137.224248 0.000000
137.274385 0.000000
137.324521 0.000000
137.374658 0.000000
137.424795 0.000000
137.474932 0.000000
137.525068 0.000000
137.575205 0.000000
137.625342 0.000000
137.675479 0.000000
137.725615 0.000000
137.775752 0.000000
137.825889 0.000000
137.876026 0.000000
137.926162 0.000000
137.976299 0.000000
138.026436 0.000000
138.076572 0.000000
138.126709 0.000000
138.176846 0.000000
138.226983 0.000000
138.277119 0.000000
138.327256 0.000000
138.377393 0.000000
138.427530 0.000000
138.477666 0.000000
138.527803 0.000000
138.577940 0.000000
138.628077 0.000000
138.678213 0.000000
138.728350 0.000000
138.778487 0.000000
138.828624 0.000000
138.878760 0.000000
138.928897 0.000000
138.979034 0.000000
139.029170 0.000000
139.079307 0.000000
139.129444 0.000000
139.179581 0.000000
139.229717 0.000000
139.279854 0.000000
139.329991 0.000000
139.380128 0.000000
139.430264 0.000000
139.480401 0.000000
139.530538 0.000000
139.580675 0.000000
139.630811 0.000000
139.680948 0.000000
139.731085 0.000000
139.781222 0.000000
139.831358 0.000000
139.881495 0.000000
139.931632 0.000000
139.981768 0.000000
140.031905 0.000000
140.082042 0.000000
140.132179 0.000000
140.182315 0.000000
140.232452 0.000000
140.282589 0.000000
140.332726 0.000000
140.382862 0.000000
140.432999 0.000000
140.483136 0.000000
140.533273 0.000000
140.583409 0.000000
140.633546 0.000000
140.683683 0.000000
140.733820 0.000000
140.783956 0.000000
140.834093 0.000000
140.884230 0.000000
140.934366 0.000000
140.984503 0.000000
141.034640 0.000000
141.084777 0.000000
141.134913 0.000000
141.185050 0.000000
141.235187 0.000000
141.285324 0.000000
141.335460 0.000000
141.385597 0.000000
141.435734 0.000000
141.485871 0.000000
141.536007 0.000000
141.586144 0.000000
141.636281 0.000000
141.686418 0.000000
141.736554 0.000000
141.786691 0.000000
141.836828 0.000000
141.886964 0.000000
141.937101 0.000000
141.987238 0.000000
142.037375 0.000000
142.087511 0.000000
142.137648 0.000000
142.187785 0.000000
142.237922 0.000000
142.288058 0.000000
142.338195 0.000000
142.388332 0.000000
142.438469 0.000000
142.488605 0.000000
142.538742 0.000000
142.588879 0.000000
142.639015 0.000000
142.689152 0.000000
142.739289 0.000000
142.789426 0.000000
142.839562 0.000000
142.889699 0.000000
142.939836 0.000000
142.989973 0.000000
143.040109 0.000000
143.090246 0.000000
143.140383 0.000000
143.190520 0.000000
143.240656 0.000000
143.290793 0.000000
143.340930 0.000000
143.391067 0.000000
143.441203 0.000000
143.491340 0.000000
143.541477 0.000000
143.591613 0.000000
143.641750 0.000000
143.691887 0.000000
143.742024 0.000000
143.792160 0.000000
143.842297 0.000000
143.892434 0.000000
143.942571 0.000000
143.992707 0.000000
144.042844 0.000000
144.092981 0.000000
144.143118 0.000000
144.193254 0.000000
144.243391 0.000000
144.293528 0.000000
144.343665 0.000000
144.393801 0.000000
144.443938 0.000000
144.494075 0.000000
144.544211 0.000000
144.594348 0.000000
144.644485 0.000000
144.694622 0.000000
144.744758 0.000000
144.794895 0.000000
144.845032 0.000000
144.895169 0.000000
144.945305 0.000000
144.995442 0.000000
145.045579 0.000000
145.095716 0.000000
145.145852 0.000000
145.195989 0.000000
145.246126 0.000000
145.296263 0.000000
145.346399 0.000000
145.396536 0.000000
145.446673 0.000000
145.496809 0.000000
145.546946 0.000000
145.597083 0.000000
145.647220 0.000000
145.697356 0.000000
145.747493 0.000000
145.797630 0.000000
145.847767 0.000000
145.897903 0.000000
145.948040 0.000000
145.998177 0.000000
146.048314 0.000000
146.098450 0.000000
146.148587 0.000000
146.198724 0.000000
146.248861 0.000000
146.298997 0.000000
146.349134 0.000000
146.399271 0.000000
146.449407 0.000000
146.499544 0.000000
146.549681 0.000000
146.599818 0.000000
146.649954 0.000000
146.700091 0.000000
146.750228 0.000000
146.800365 0.000000
146.850501 0.000000
146.900638 0.000000
146.950775 0.000000
147.000912 0.000000
147.051048 0.000000
147.101185 0.000000
147.151322 0.000000
147.201459 0.000000
147.251595 0.000000
147.301732 0.000000
147.351869 0.000000
147.402005 0.000000
147.452142 0.000000
147.502279 0.000000
147.552416 0.000000
147.602552 0.000000
147.652689 0.000000
147.702826 0.000000
147.752963 0.000000
147.803099 0.000000
147.853236 0.000000
147.903373 0.000000
147.953510 0.000000
148.003646 0.000000
148.053783 0.000000
148.103920 0.000000
148.154057 0.000000
148.204193 0.000000
148.254330 0.000000
148.304467 0.000000
148.354603 0.000000
148.404740 0.000000
148.454877 0.000000
148.505014 0.000000
148.555150 0.000000
148.605287 0.000000
148.655424 0.000000
148.705561 0.000000
148.755697 0.000000
148.805834 0.000000
148.855971 0.000000
148.906108 0.000000
148.956244 0.000000
149.006381 0.000000
149.056518 0.000000
149.106655 0.000000
149.156791 0.000000
149.206928 0.000000
149.257065 0.000000
149.307201 0.000000
149.357338 0.000000
149.407475 0.000000
149.457612 0.000000
149.507748 0.000000
149.557885 0.000000
149.608022 0.000000
149.658159 0.000000
149.708295 0.000000
149.758432 0.000000
149.808569 0.000000
149.858706 0.000000
149.908842 0.000000
149.958979 0.000000
150.009116 0.000000
150.059253 0.000000
150.109389 0.000000
150.159526 0.000000
150.209663 0.000000
150.259799 0.000000
150.309936 0.000000
150.360073 0.000000
150.410210 0.000000
150.460346 0.000000
150.510483 0.000000
150.560620 0.000000
150.610757 0.000000
150.660893 0.000000
150.711030 0.000000
150.761167 0.000000
150.811304 0.000000
150.861440 0.000000
150.911577 0.000000
150.961714 0.000000
151.011851 0.000000
151.061987 0.000000
151.112124 0.000000
151.162261 0.000000
151.212397 0.000000
151.262534 0.000000
151.312671 0.000000
151.362808 0.000000
151.412944 0.000000
151.463081 0.000000
151.513218 0.000000
151.563355 0.000000
151.613491 0.000000
151.663628 0.000000
151.713765 0.000000
151.763902 0.000000
151.814038 0.000000
151.864175 0.000000
151.914312 0.000000
151.964448 0.000000
152.014585 0.000000
152.064722 0.000000
152.114859 0.000000
152.164995 0.000000
152.215132 0.000000
152.265269 0.000000
152.315406 0.000000
152.365542 0.000000
152.415679 0.000000
152.465816 0.000000
152.515953 0.000000
152.566089 0.000000
152.616226 0.000000
152.666363 0.000000
152.716500 0.000000
152.766636 0.000000
152.816773 0.000000
152.866910 0.000000
152.917046 0.000000
152.967183 0.000000
153.017320 0.000000
153.067457 0.000000
153.117593 0.000000
153.167730 0.000000
153.217867 0.000000
153.268004 0.000000
153.318140 0.000000
153.368277 0.000000
153.418414 0.000000
153.468551 0.000000
153.518687 0.000000
153.568824 0.000000
153.618961 0.000000
153.669098 0.000000
153.719234 0.000000
153.769371 0.000000
153.819508 0.000000
153.869644 0.000000
153.919781 0.000000
153.969918 0.000000
154.020055 0.000000
154.070191 0.000000
154.120328 0.000000
154.170465 0.000000
154.220602 0.000000
154.270738 0.000000
154.320875 0.000000
154.371012 0.000000
154.421149 0.000000
154.471285 0.000000
154.521422 0.000000
154.571559 0.000000
154.621696 0.000000
154.671832 0.000000
154.721969 0.000000
154.772106 0.000000
154.822242 0.000000
154.872379 0.000000
154.922516 0.000000
154.972653 0.000000
155.022789 0.000000
155.072926 0.000000
155.123063 0.000000
155.173200 0.000000
155.223336 0.000000
155.273473 0.000000
155.323610 0.000000
155.373747 0.000000
155.423883 0.000000
155.474020 0.000000
155.524157 0.000000
155.574294 0.000000
155.624430 0.000000
155.674567 0.000000
155.724704 0.000000
155.774840 0.000000
155.824977 0.000000
155.875114 0.000000
155.925251 0.000000
155.975387 0.000000
156.025524 0.000000
156.075661 0.000000
156.125798 0.000000
156.175934 0.000000
156.226071 0.000000
156.276208 0.000000
156.326345 0.000000
156.376481 0.000000
156.426618 0.000000
156.476755 0.000000
156.526892 0.000000
156.577028 0.000000
156.627165 0.000000
156.677302 0.000000
156.727438 0.000000
156.777575 0.000000
156.827712 0.000000
156.877849 0.000000
156.927985 0.000000
156.978122 0.000000
157.028259 0.000000
157.078396 0.000000
157.128532 0.000000
157.178669 0.000000
157.228806 0.000000
157.278943 0.000000
157.329079 0.000000
157.379216 0.000000
157.429353 0.000000
157.479490 0.000000
157.529626 0.000000
157.579763 0.000000
157.629900 0.000000
157.680036 0.000000
157.730173 0.000000
157.780310 0.000000
157.830447 0.000000
157.880583 0.000000
157.930720 0.000000
157.980857 0.000000
158.030994 0.000000
158.081130 0.000000
158.131267 0.000000
158.181404 0.000000
158.231541 0.000000
158.281677 0.000000
158.331814 0.000000
158.381951 0.000000
158.432088 0.000000
158.482224 0.000000
158.532361 0.000000
158.582498 0.000000
158.632634 0.000000
158.682771 0.000000
158.732908 0.000000
158.783045 0.000000
158.833181 0.000000
158.883318 0.000000
158.933455 0.000000
158.983592 0.000000
159.033728 0.000000
159.083865 0.000000
159.134002 0.000000
159.184139 0.000000
159.234275 0.000000
159.284412 0.000000
159.334549 0.000000
159.384686 0.000000
159.434822 0.000000
159.484959 0.000000
159.535096 0.000000
159.585232 0.000000
159.635369 0.000000
159.685506 0.000000
159.735643 0.000000
159.785779 0.000000
159.835916 0.000000
159.886053 0.000000
159.936190 0.000000
159.986326 0.000000
160.036463 0.000000
160.086600 0.000000
160.136737 0.000000
160.186873 0.000000
160.237010 0.000000
160.287147 0.000000
160.337284 0.000000
160.387420 0.000000
160.437557 0.000000
160.487694 0.000000
160.537830 0.000000
160.587967 0.000000
160.638104 0.000000
160.688241 0.000000
160.738377 0.000000
160.788514 0.000000
160.838651 0.000000
160.888788 0.000000
160.938924 0.000000
160.989061 0.000000
161.039198 0.000000
161.089335 0.000000
161.139471 0.000000
161.189608 0.000000
161.239745 0.000000
161.289881 0.000000
161.340018 0.000000
161.390155 0.000000
161.440292 0.000000
161.490428 0.000000
161.540565 0.000000
161.590702 0.000000
161.640839 0.000000
161.690975 0.000000
161.741112 0.000000
161.791249 0.000000
161.841386 0.000000
161.891522 0.000000
161.941659 0.000000
161.991796 0.000000
162.041933 0.000000
162.092069 0.000000
162.142206 0.000000
162.192343 0.000000
162.242479 0.000000
162.292616 0.000000
162.342753 0.000000
162.392890 0.000000
162.443026 0.000000
162.493163 0.000000
162.543300 0.000000
162.593437 0.000000
162.643573 0.000000
162.693710 0.000000
162.743847 0.000000
162.793984 0.000000
162.844120 0.000000
162.894257 0.000000
162.944394 0.000000
162.994531 0.000000
163.044667 0.000000
163.094804 0.000000
163.144941 0.000000
163.195077 0.000000
163.245214 0.000000
163.295351 0.000000
163.345488 0.000000
163.395624 0.000000
163.445761 0.000000
163.495898 0.000000
163.546035 0.000000
163.596171 0.000000
163.646308 0.000000
163.696445 0.000000
163.746582 0.000000
163.796718 0.000000
163.846855 0.000000
163.896992 0.000000
163.947129 0.000000
163.997265 0.000000
164.047402 0.000000
164.097539 0.000000
164.147675 0.000000
164.197812 0.000000
164.247949 0.000000
164.298086 0.000000
164.348222 0.000000
164.398359 0.000000
164.448496 0.000000
164.498633 0.000000
164.548769 0.000000
164.598906 0.000000
164.649043 0.000000
164.699180 0.000000
164.749316 0.000000
164.799453 0.000000
164.849590 0.000000
164.899727 0.000000
164.949863 0.000000
165.000000 0.000000
165.050137 0.000000
165.100273 0.000000
165.150410 0.000000
165.200547 0.000000
165.250684 0.000000
165.300820 0.000000
165.350957 0.000000
165.401094 0.000000
165.451231 0.000000
165.501367 0.000000
165.551504 0.000000
165.601641 0.000000
165.651778 0.000000
165.701914 0.000000
165.752051 0.000000
165.802188 0.000000
165.852325 0.000000
165.902461 0.000000
165.952598 0.000000
166.002735 0.000000
166.052871 0.000000
166.103008 0.000000
166.153145 0.000000
166.203282 0.000000
166.253418 0.000000
166.303555 0.000000
166.353692 0.000000
166.403829 0.000000
166.453965 0.000000
166.504102 0.000000
166.554239 0.000000
166.604376 0.000000
166.654512 0.000000
166.704649 0.000000
166.754786 0.000000
166.804923 0.000000
166.855059 0.000000
166.905196 0.000000
166.955333 0.000000
167.005469 0.000000
167.055606 0.000000
167.105743 0.000000
167.155880 0.000000
167.206016 0.000000
167.256153 0.000000
167.306290 0.000000
167.356427 0.000000
167.406563 0.000000
167.456700 0.000000
167.506837 0.000000
167.556974 0.000000
167.607110 0.000000
167.657247 0.000000
167.707384 0.000000
167.757521 0.000000
167.807657 0.000000
167.857794 0.000000
167.907931 0.000000
167.958067 0.000000
168.008204 0.000000
168.058341 0.000000
168.108478 0.000000
168.158614 0.000000
168.208751 0.000000
168.258888 0.000000
168.309025 0.000000
168.359161 0.000000
168.409298 0.000000
168.459435 0.000000
168.509572 0.000000
168.559708 0.000000
168.609845 0.000000
168.659982 0.000000
168.710119 0.000000
168.760255 0.000000
168.810392 0.000000
168.860529 0.000000
168.910665 0.000000
168.960802 0.000000
169.010939 0.000000
169.061076 0.000000
169.111212 0.000000
169.161349 0.000000
169.211486 0.000000
169.261623 0.000000
169.311759 0.000000
169.361896 0.000000
169.412033 0.000000
169.462170 0.000000
169.512306 0.000000
169.562443 0.000000
169.612580 0.000000
169.662716 0.000000
169.712853 0.000000
169.762990 0.000000
169.813127 0.000000
169.863263 0.000000
169.913400 0.000000
169.963537 0.000000
170.013674 0.000000
170.063810 0.000000
170.113947 0.000000
170.164084 0.000000
170.214221 0.000000
170.264357 0.000000
170.314494 0.000000
170.364631 0.000000
170.414768 0.000000
170.464904 0.000000
170.515041 0.000000
170.565178 0.000000
170.615314 0.000000
170.665451 0.000000
170.715588 0.000000
170.765725 0.000000
170.815861 0.000000
170.865998 0.000000
170.916135 0.000000
170.966272 0.000000
171.016408 0.000000
171.066545 0.000000
171.116682 0.000000
171.166819 0.000000
171.216955 0.000000
171.267092 0.000000
171.317229 0.000000
171.367366 0.000000
171.417502 0.000000
171.467639 0.000000
171.517776 0.000000
171.567912 0.000000
171.618049 0.000000
171.668186 0.000000
171.718323 0.000000
171.768459 0.000000
171.818596 0.000000
171.868733 0.000000
171.918870 0.000000
171.969006 0.000000
172.019143 0.000000
172.069280 0.000000
172.119417 0.000000
172.169553 0.000000
172.219690 0.000000
172.269827 0.000000
172.319964 0.000000
172.370100 0.000000
172.420237 0.000000
172.470374 0.000000
172.520510 0.000000
172.570647 0.000000
172.620784 0.000000
172.670921 0.000000
172.721057 0.000000
172.771194 0.000000
172.821331 0.000000
172.871468 0.000000
172.921604 0.000000
172.971741 0.000000
173.021878 0.000000
173.072015 0.000000
173.122151 0.000000
173.172288 0.000000
173.222425 0.000000
173.272562 0.000000
173.322698 0.000000
173.372835 0.000000
173.422972 0.000000
173.473108 0.000000
173.523245 0.000000
173.573382 0.000000
173.623519 0.000000
173.673655 0.000000
173.723792 0.000000
173.773929 0.000000
173.824066 0.000000
173.874202 0.000000
173.924339 0.000000
173.974476 0.000000
174.024613 0.000000
174.074749 0.000000
174.124886 0.000000
174.175023 0.000000
174.225160 0.000000
174.275296 0.000000
174.325433 0.000000
174.375570 0.000000
174.425706 0.000000
174.475843 0.000000
174.525980 0.000000
174.576117 0.000000
174.626253 0.000000
174.676390 0.000000
174.726527 0.000000
174.776664 0.000000
174.826800 0.000000
174.876937 0.000000
174.927074 0.000000
174.977211 0.000000
175.027347 0.000000
175.077484 0.000000
175.127621 0.000000
175.177758 0.000000
175.227894 0.000000
175.278031 0.000000
175.328168 0.000000
175.378304 0.000000
175.428441 0.000000
175.478578 0.000000
175.528715 0.000000
175.578851 0.000000
175.628988 0.000000
175.679125 0.000000
175.729262 0.000000
175.779398 0.000000
175.829535 0.000000
175.879672 0.000000
175.929809 0.000000
175.979945 0.000000
176.030082 0.000000
176.080219 0.000000
176.130356 0.000000
176.180492 0.000000
176.230629 0.000000
176.280766 0.000000
176.330902 0.000000
176.381039 0.000000
176.431176 0.000000
176.481313 0.000000
176.531449 0.000000
176.581586 0.000000
176.631723 0.000000
176.681860 0.000000
176.731996 0.000000
176.782133 0.000000
176.832270 0.000000
176.882407 0.000000
176.932543 0.000000
176.982680 0.000000
177.032817 0.000000
177.082954 0.000000
177.133090 0.000000
177.183227 0.000000
177.233364 0.000000
177.283500 0.000000
177.333637 0.000000
177.383774 0.000000
177.433911 0.000000
177.484047 0.000000
177.534184 0.000000
177.584321 0.000000
177.634458 0.000000
177.684594 0.000000
177.734731 0.000000
177.784868 0.000000
177.835005 0.000000
177.885141 0.000000
177.935278 0.000000
177.985415 0.000000
178.035552 0.000000
178.085688 0.000000
178.135825 0.000000
178.185962 0.000000
178.236098 0.000000
178.286235 0.000000
178.336372 0.000000
178.386509 0.000000
178.436645 0.000000
178.486782 0.000000
178.536919 0.000000
178.587056 0.000000
178.637192 0.000000
178.687329 0.000000
178.737466 0.000000
178.787603 0.000000
178.837739 0.000000
178.887876 0.000000
178.938013 0.000000
178.988149 0.000000
179.038286 0.000000
179.088423 0.000000
179.138560 0.000000
179.188696 0.000000
179.238833 0.000000
179.288970 0.000000
179.339107 0.000000
179.389243 0.000000
179.439380 0.000000
179.489517 0.000000
179.539654 0.000000
179.589790 0.000000
179.639927 0.000000
179.690064 0.000000
179.740201 0.000000
179.790337 0.000000
179.840474 0.000000
179.890611 0.000000
179.940747 0.000000
179.990884 0.000000
180.041021 0.000000
180.091158 0.000000
180.141294 0.000000
180.191431 0.000000
180.241568 0.000000
180.291705 0.000000
180.341841 0.000000
180.391978 0.000000
180.442115 0.000000
180.492252 0.000000
180.542388 0.000000
180.592525 0.000000
180.642662 0.000000
180.692799 0.000000
180.742935 0.000000
180.793072 0.000000
180.843209 0.000000
180.893345 0.000000
180.943482 0.000000
180.993619 0.000000
181.043756 0.000000
181.093892 0.000000
181.144029 0.000000
181.194166 0.000000
181.244303 0.000000
181.294439 0.000000
181.344576 0.000000
181.394713 0.000000
181.444850 0.000000
181.494986 0.000000
181.545123 0.000000
181.595260 0.000000
181.645397 0.000000
181.695533 0.000000
181.745670 0.000000
181.795807 0.000000
181.845943 0.000000
181.896080 0.000000
181.946217 0.000000
181.996354 0.000000
182.046490 0.000000
182.096627 0.000000
182.146764 0.000000
182.196901 0.000000
182.247037 0.000000
182.297174 0.000000
182.347311 0.000000
182.397448 0.000000
182.447584 0.000000
182.497721 0.000000
182.547858 0.000000
182.597995 0.000000
182.648131 0.000000
182.698268 0.000000
182.748405 0.000000
182.798541 0.000000
182.848678 0.000000
182.898815 0.000000
182.948952 0.000000
182.999088 0.000000
183.049225 0.000000
183.099362 0.000000
183.149499 0.000000
183.199635 0.000000
183.249772 0.000000
183.299909 0.000000
183.350046 0.000000
183.400182 0.000000
183.450319 0.000000
183.500456 0.000000
183.550593 0.000000
183.600729 0.000000
183.650866 0.000000
183.701003 0.000000
183.751139 0.000000
183.801276 0.000000
183.851413 0.000000
183.901550 0.000000
183.951686 0.000000
184.001823 0.000000
184.051960 0.000000
184.102097 0.000000
184.152233 0.000000
184.202370 0.000000
184.252507 0.000000
184.302644 0.000000
184.352780 0.000000
184.402917 0.000000
184.453054 0.000000
184.503191 0.000000
184.553327 0.000000
184.603464 0.000000
184.653601 0.000000
184.703737 0.000000
184.753874 0.000000
184.804011 0.000000
184.854148 0.000000
184.904284 0.000000
184.954421 0.000000
185.004558 0.000000
185.054695 0.000000
185.104831 0.000000
185.154968 0.000000
185.205105 0.000000
185.255242 0.000000
185.305378 0.000000
185.355515 0.000000
185.405652 0.000000
185.455789 0.000000
185.505925 0.000000
185.556062 0.000000
185.606199 0.000000
185.656335 0.000000
185.706472 0.000000
185.756609 0.000000
185.806746 0.000000
185.856882 0.000000
185.907019 0.000000
185.957156 0.000000
186.007293 0.000000
186.057429 0.000000
186.107566 0.000000
186.157703 0.000000
186.207840 0.000000
186.257976 0.000000
186.308113 0.000000
186.358250 0.000000
186.408387 0.000000
186.458523 0.000000
186.508660 0.000000
186.558797 0.000000
186.608933 0.000000
186.659070 0.000000
186.709207 0.000000
186.759344 0.000000
186.809480 0.000000
186.859617 0.000000
186.909754 0.000000
186.959891 0.000000
187.010027 0.000000
187.060164 0.000000
187.110301 0.000000
187.160438 0.000000
187.210574 0.000000
187.260711 0.000000
187.310848 0.000000
187.360985 0.000000
187.411121 0.000000
187.461258 0.000000
187.511395 0.000000
187.561531 0.000000
187.611668 0.000000
187.661805 0.000000
187.711942 0.000000
187.762078 0.000000
187.812215 0.000000
187.862352 0.000000
187.912489 0.000000
187.962625 0.000000
188.012762 0.000000
188.062899 0.000000
188.113036 0.000000
188.163172 0.000000
188.213309 0.000000
188.263446 0.000000
188.313582 0.000000
188.363719 0.000000
188.413856 0.000000
188.463993 0.000000
188.514129 0.000000
188.564266 0.000000
188.614403 0.000000
188.664540 0.000000
188.714676 0.000000
188.764813 0.000000
188.814950 0.000000
188.865087 0.000000
188.915223 0.000000
188.965360 0.000000
189.015497 0.000000
189.065634 0.000000
189.115770 0.000000
189.165907 0.000000
189.216044 0.000000
189.266180 0.000000
189.316317 0.000000
189.366454 0.000000
189.416591 0.000000
189.466727 0.000000
189.516864 0.000000
189.567001 0.000000
189.617138 0.000000
189.667274 0.000000
189.717411 0.000000
189.767548 0.000000
189.817685 0.000000
189.867821 0.000000
189.917958 0.000000
189.968095 0.000000
190.018232 0.000000
190.068368 0.000000
190.118505 0.000000
190.168642 0.000000
190.218778 0.000000
190.268915 0.000000
190.319052 0.000000
190.369189 0.000000
190.419325 0.000000
190.469462 0.000000
190.519599 0.000000
190.569736 0.000000
190.619872 0.000000
190.670009 0.000000
190.720146 0.000000
190.770283 0.000000
190.820419 0.000000
190.870556 0.000000
190.920693 0.000000
190.970830 0.000000
191.020966 0.000000
191.071103 0.000000
191.121240 0.000000
191.171376 0.000000
191.221513 0.000000
191.271650 0.000000
191.321787 0.000000
191.371923 0.000000
191.422060 0.000000
191.472197 0.000000
191.522334 0.000000
191.572470 0.000000
191.622607 0.000000
191.672744 0.000000
191.722881 0.000000
191.773017 0.000000
191.823154 0.000000
191.873291 0.000000
191.923428 0.000000
191.973564 0.000000
192.023701 0.000000
192.073838 0.000000
192.123974 0.000000
192.174111 0.000000
192.224248 0.000000
192.274385 0.000000
192.324521 0.000000
192.374658 0.000000
192.424795 0.000000
192.474932 0.000000
192.525068 0.000000
192.575205 0.000000
192.625342 0.000000
192.675479 0.000000
192.725615 0.000000
192.775752 0.000000
192.825889 0.000000
192.876026 0.000000
192.926162 0.000000
192.976299 0.000000
193.026436 0.000000
193.076572 0.000000
193.126709 0.000000
193.176846 0.000000
193.226983 0.000000
193.277119 0.000000
193.327256 0.000000
193.377393 0.000000
193.427530 0.000000
193.477666 0.000000
193.527803 0.000000
193.577940 0.000000
193.628077 0.000000
193.678213 0.000000
193.728350 0.000000
193.778487 0.000000
193.828624 0.000000
193.878760 0.000000
193.928897 0.000000
193.979034 0.000000
194.029170 0.000000
194.079307 0.000000
194.129444 0.000000
194.179581 0.000000
194.229717 0.000000
194.279854 0.000000
194.329991 0.000000
194.380128 0.000000
194.430264 0.000000
194.480401 0.000000
194.530538 0.000000
194.580675 0.000000
194.630811 0.000000
194.680948 0.000000
194.731085 0.000000
194.781222 0.000000
194.831358 0.000000
194.881495 0.000000
194.931632 0.000000
194.981768 0.000000
195.031905 0.000000
195.082042 0.000000
195.132179 0.000000
195.182315 0.000000
195.232452 0.000000
195.282589 0.000000
195.332726 0.000000
195.382862 0.000000
195.432999 0.000000
195.483136 0.000000
195.533273 0.000000
195.583409 0.000000
195.633546 0.000000
195.683683 0.000000
195.733820 0.000000
195.783956 0.000000
195.834093 0.000000
195.884230 0.000000
195.934366 0.000000
195.984503 0.000000
196.034640 0.000000
196.084777 0.000000
196.134913 0.000000
196.185050 0.000000
196.235187 0.000000
196.285324 0.000000
196.335460 0.000000
196.385597 0.000000
196.435734 0.000000
196.485871 0.000000
196.536007 0.000000
196.586144 0.000000
196.636281 0.000000
196.686418 0.000000
196.736554 0.000000
196.786691 0.000000
196.836828 0.000000
196.886964 0.000000
196.937101 0.000000
196.987238 0.000000
197.037375 0.000000
197.087511 0.000000
197.137648 0.000000
197.187785 0.000000
197.237922 0.000000
197.288058 0.000000
197.338195 0.000000
197.388332 0.000000
197.438469 0.000000
197.488605 0.000000
197.538742 0.000000
197.588879 0.000000
197.639015 0.000000
197.689152 0.000000
197.739289 0.000000
197.789426 0.000000
197.839562 0.000000
197.889699 0.000000
197.939836 0.000000
197.989973 0.000000
198.040109 0.000000
198.090246 0.000000
198.140383 0.000000
198.190520 0.000000
198.240656 0.000000
198.290793 0.000000
198.340930 0.000000
198.391067 0.000000
198.441203 0.000000
198.491340 0.000000
198.541477 0.000000
198.591613 0.000000
198.641750 0.000000
198.691887 0.000000
198.742024 0.000000
198.792160 0.000000
198.842297 0.000000
198.892434 0.000000
198.942571 0.000000
198.992707 0.000000
199.042844 0.000000
199.092981 0.000000
199.143118 0.000000
199.193254 0.000000
199.243391 0.000000
199.293528 0.000000
199.343665 0.000000
199.393801 0.000000
199.443938 0.000000
199.494075 0.000000
199.544211 0.000000
199.594348 0.000000
199.644485 0.000000
199.694622 0.000000
199.744758 0.000000
199.794895 0.000000
199.845032 0.000000
199.895169 0.000000
199.945305 0.000000
199.995442 0.000000
200.045579 0.000000
200.095716 0.000000
200.145852 0.000000
200.195989 0.000000
200.246126 0.000000
200.296263 0.000000
200.346399 0.000000
200.396536 0.000000
200.446673 0.000000
200.496809 0.000000
200.546946 0.000000
200.597083 0.000000
200.647220 0.000000
200.697356 0.000000
200.747493 0.000000
200.797630 0.000000
200.847767 0.000000
200.897903 0.000000
200.948040 0.000000
200.998177 0.000000
201.048314 0.000000
201.098450 0.000000
201.148587 0.000000
201.198724 0.000000
201.248861 0.000000
201.298997 0.000000
201.349134 0.000000
201.399271 0.000000
201.449407 0.000000
201.499544 0.000000
201.549681 0.000000
201.599818 0.000000
201.649954 0.000000
201.700091 0.000000
201.750228 0.000000
201.800365 0.000000
201.850501 0.000000
201.900638 0.000000
201.950775 0.000000
202.000912 0.000000
202.051048 0.000000
202.101185 0.000000
202.151322 0.000000
202.201459 0.000000
202.251595 0.000000
202.301732 0.000000
202.351869 0.000000
202.402005 0.000000
202.452142 0.000000
202.502279 0.000000
202.552416 0.000000
202.602552 0.000000
202.652689 0.000000
202.702826 0.000000
202.752963 0.000000
202.803099 0.000000
202.853236 0.000000
202.903373 0.000000
202.953510 0.000000
203.003646 0.000000
203.053783 0.000000
203.103920 0.000000
203.154057 0.000000
203.204193 0.000000
203.254330 0.000000
203.304467 0.000000
203.354603 0.000000
203.404740 0.000000
203.454877 0.000000
203.505014 0.000000
203.555150 0.000000
203.605287 0.000000
203.655424 0.000000
203.705561 0.000000
203.755697 0.000000
203.805834 0.000000
203.855971 0.000000
203.906108 0.000000
203.956244 0.000000
204.006381 0.000000
204.056518 0.000000
204.106655 0.000000
204.156791 0.000000
204.206928 0.000000
204.257065 0.000000
204.307201 0.000000
204.357338 0.000000
204.407475 0.000000
204.457612 0.000000
204.507748 0.000000
204.557885 0.000000
204.608022 0.000000
204.658159 0.000000
204.708295 0.000000
204.758432 0.000000
204.808569 0.000000
204.858706 0.000000
204.908842 0.000000
204.958979 0.000000
205.009116 0.000000
205.059253 0.000000
205.109389 0.000000
205.159526 0.000000
205.209663 0.000000
205.259799 0.000000
205.309936 0.000000
205.360073 0.000000
205.410210 0.000000
205.460346 0.000000
205.510483 0.000000
205.560620 0.000000
205.610757 0.000000
205.660893 0.000000
205.711030 0.000000
205.761167 0.000000
205.811304 0.000000
205.861440 0.000000
205.911577 0.000000
205.961714 0.000000
206.011851 0.000000
206.061987 0.000000
206.112124 0.000000
206.162261 0.000000
206.212397 0.000000
206.262534 0.000000
206.312671 0.000000
206.362808 0.000000
206.412944 0.000000
206.463081 0.000000
206.513218 0.000000
206.563355 0.000000
206.613491 0.000000
206.663628 0.000000
206.713765 0.000000
206.763902 0.000000
206.814038 0.000000
206.864175 0.000000
206.914312 0.000000
206.964448 0.000000
207.014585 0.000000
207.064722 0.000000
207.114859 0.000000
207.164995 0.000000
207.215132 0.000000
207.265269 0.000000
207.315406 0.000000
207.365542 0.000000
207.415679 0.000000
207.465816 0.000000
207.515953 0.000000
207.566089 0.000000
207.616226 0.000000
207.666363 0.000000
207.716500 0.000000
207.766636 0.000000
207.816773 0.000000
207.866910 0.000000
207.917046 0.000000
207.967183 0.000000
208.017320 0.000000
208.067457 0.000000
208.117593 0.000000
208.167730 0.000000
208.217867 0.000000
208.268004 0.000000
208.318140 0.000000
208.368277 0.000000
208.418414 0.000000
208.468551 0.000000
208.518687 0.000000
208.568824 0.000000
208.618961 0.000000
208.669098 0.000000
208.719234 0.000000
208.769371 0.000000
208.819508 0.000000
208.869644 0.000000
208.919781 0.000000
208.969918 0.000000
209.020055 0.000000
209.070191 0.000000
209.120328 0.000000
209.170465 0.000000
209.220602 0.000000
209.270738 0.000000
209.320875 0.000000
209.371012 0.000000
209.421149 0.000000
209.471285 0.000000
209.521422 0.000000
209.571559 0.000000
209.621696 0.000000
209.671832 0.000000
209.721969 0.000000
209.772106 0.000000
209.822242 0.000000
209.872379 0.000000
209.922516 0.000000
209.972653 0.000000
210.022789 0.000000
210.072926 0.000000
210.123063 0.000000
210.173200 0.000000
210.223336 0.000000
210.273473 0.000000
210.323610 0.000000
210.373747 0.000000
210.423883 0.000000
210.474020 0.000000
210.524157 0.000000
210.574294 0.000000
210.624430 0.000000
210.674567 0.000000
210.724704 0.000000
210.774840 0.000000
210.824977 0.000000
210.875114 0.000000
210.925251 0.000000
210.975387 0.000000
211.025524 0.000000
211.075661 0.000000
211.125798 0.000000
211.175934 0.000000
211.226071 0.000000
211.276208 0.000000
211.326345 0.000000
211.376481 0.000000
211.426618 0.000000
211.476755 0.000000
211.526892 0.000000
211.577028 0.000000
211.627165 0.000000
211.677302 0.000000
211.727438 0.000000
211.777575 0.000000
211.827712 0.000000
211.877849 0.000000
211.927985 0.000000
211.978122 0.000000
212.028259 0.000000
212.078396 0.000000
212.128532 0.000000
212.178669 0.000000
212.228806 0.000000
212.278943 0.000000
212.329079 0.000000
212.379216 0.000000
212.429353 0.000000
212.479490 0.000000
212.529626 0.000000
212.579763 0.000000
212.629900 0.000000
212.680036 0.000000
212.730173 0.000000
212.780310 0.000000
212.830447 0.000000
212.880583 0.000000
212.930720 0.000000
212.980857 0.000000
213.030994 0.000000
213.081130 0.000000
213.131267 0.000000
213.181404 0.000000
213.231541 0.000000
213.281677 0.000000
213.331814 0.000000
213.381951 0.000000
213.432088 0.000000
213.482224 0.000000
213.532361 0.000000
213.582498 0.000000
213.632634 0.000000
213.682771 0.000000
213.732908 0.000000
213.783045 0.000000
213.833181 0.000000
213.883318 0.000000
213.933455 0.000000
213.983592 0.000000
214.033728 0.000000
214.083865 0.000000
214.134002 0.000000
214.184139 0.000000
214.234275 0.000000
214.284412 0.000000
214.334549 0.000000
214.384686 0.000000
214.434822 0.000000
214.484959 0.000000
214.535096 0.000000
214.585232 0.000000
214.635369 0.000000
214.685506 0.000000
214.735643 0.000000
214.785779 0.000000
214.835916 0.000000
214.886053 0.000000
214.936190 0.000000
214.986326 0.000000
215.036463 0.000000
215.086600 0.000000
215.136737 0.000000
215.186873 0.000000
215.237010 0.000000
215.287147 0.000000
215.337284 0.000000
215.387420 0.000000
215.437557 0.000000
215.487694 0.000000
215.537830 0.000000
215.587967 0.000000
215.638104 0.000000
215.688241 0.000000
215.738377 0.000000
215.788514 0.000000
215.838651 0.000000
215.888788 0.000000
215.938924 0.000000
215.989061 0.000000
216.039198 0.000000
216.089335 0.000000
216.139471 0.000000
216.189608 0.000000
216.239745 0.000000
216.289881 0.000000
216.340018 0.000000
216.390155 0.000000
216.440292 0.000000
216.490428 0.000000
216.540565 0.000000
216.590702 0.000000
216.640839 0.000000
216.690975 0.000000
216.741112 0.000000
216.791249 0.000000
216.841386 0.000000
216.891522 0.000000
216.941659 0.000000
216.991796 0.000000
217.041933 0.000000
217.092069 0.000000
217.142206 0.000000
217.192343 0.000000
217.242479 0.000000
217.292616 0.000000
217.342753 0.000000
217.392890 0.000000
217.443026 0.000000
217.493163 0.000000
217.543300 0.000000
217.593437 0.000000
217.643573 0.000000
217.693710 0.000000
217.743847 0.000000
217.793984 0.000000
217.844120 0.000000
217.894257 0.000000
217.944394 0.000000
217.994531 0.000000
218.044667 0.000000
218.094804 0.000000
218.144941 0.000000
218.195077 0.000000
218.245214 0.000000
218.295351 0.000000
218.345488 0.000000
218.395624 0.000000
218.445761 0.000000
218.495898 0.000000
218.546035 0.000000
218.596171 0.000000
218.646308 0.000000
218.696445 0.000000
218.746582 0.000000
218.796718 0.000000
218.846855 0.000000
218.896992 0.000000
218.947129 0.000000
218.997265 0.000000
219.047402 0.000000
219.097539 0.000000
219.147675 0.000000
219.197812 0.000000
219.247949 0.000000
219.298086 0.000000
219.348222 0.000000
219.398359 0.000000
219.448496 0.000000
219.498633 0.000000
219.548769 0.000000
219.598906 0.000000
219.649043 0.000000
219.699180 0.000000
219.749316 0.000000
219.799453 0.000000
219.849590 0.000000
219.899727 0.000000
219.949863 0.000000
220.000000 0.000000
220.050137 0.000000
220.100273 0.000000
220.150410 0.000000
220.200547 0.000000
220.250684 0.000000
220.300820 0.000000
220.350957 0.000000
220.401094 0.000000
220.451231 0.000000
220.501367 0.000000
220.551504 0.000000
220.601641 0.000000
220.651778 0.000000
220.701914 0.000000
220.752051 0.000000
220.802188 0.000000
220.852325 0.000000
220.902461 0.000000
220.952598 0.000000
221.002735 0.000000
221.052871 0.000000
221.103008 0.000000
221.153145 0.000000
221.203282 0.000000
221.253418 0.000000
221.303555 0.000000
221.353692 0.000000
221.403829 0.000000
221.453965 0.000000
221.504102 0.000000
221.554239 0.000000
221.604376 0.000000
221.654512 0.000000
221.704649 0.000000
221.754786 0.000000
221.804923 0.000000
221.855059 0.000000
221.905196 0.000000
221.955333 0.000000
222.005469 0.000000
222.055606 0.000000
222.105743 0.000000
222.155880 0.000000
222.206016 0.000000
222.256153 0.000000
222.306290 0.000000
222.356427 0.000000
222.406563 0.000000
222.456700 0.000000
222.506837 0.000000
222.556974 0.000000
222.607110 0.000000
222.657247 0.000000
222.707384 0.000000
222.757521 0.000000
222.807657 0.000000
222.857794 0.000000
222.907931 0.000000
222.958067 0.000000
223.008204 0.000000
223.058341 0.000000
223.108478 0.000000
223.158614 0.000000
223.208751 0.000000
223.258888 0.000000
223.309025 0.000000
223.359161 0.000000
223.409298 0.000000
223.459435 0.000000
223.509572 0.000000
223.559708 0.000000
223.609845 0.000000
223.659982 0.000000
223.710119 0.000000
223.760255 0.000000
223.810392 0.000000
223.860529 0.000000
223.910665 0.000000
223.960802 0.000000
224.010939 0.000000
224.061076 0.000000
224.111212 0.000000
224.161349 0.000000
224.211486 0.000000
224.261623 0.000000
224.311759 0.000000
224.361896 0.000000
224.412033 0.000000
224.462170 0.000000
224.512306 0.000000
224.562443 0.000000
224.612580 0.000000
224.662716 0.000000
224.712853 0.000000
224.762990 0.000000
224.813127 0.000000
224.863263 0.000000
224.913400 0.000000
224.963537 0.000000
225.013674 0.000000
225.063810 0.000000
225.113947 0.000000
225.164084 0.000000
225.214221 0.000000
225.264357 0.000000
225.314494 0.000000
225.364631 0.000000
225.414768 0.000000
225.464904 0.000000
225.515041 0.000000
225.565178 0.000000
225.615314 0.000000
225.665451 0.000000
225.715588 0.000000
225.765725 0.000000
225.815861 0.000000
225.865998 0.000000
225.916135 0.000000
225.966272 0.000000
226.016408 0.000000
226.066545 0.000000
226.116682 0.000000
226.166819 0.000000
226.216955 0.000000
226.267092 0.000000
226.317229 0.000000
226.367366 0.000000
226.417502 0.000000
226.467639 0.000000
226.517776 0.000000
226.567912 0.000000
226.618049 0.000000
226.668186 0.000000
226.718323 0.000000
226.768459 0.000000
226.818596 0.000000
226.868733 0.000000
226.918870 0.000000
226.969006 0.000000
227.019143 0.000000
227.069280 0.000000
227.119417 0.000000
227.169553 0.000000
227.219690 0.000000
227.269827 0.000000
227.319964 0.000000
227.370100 0.000000
227.420237 0.000000
227.470374 0.000000
227.520510 0.000000
227.570647 0.000000
227.620784 0.000000
227.670921 0.000000
227.721057 0.000000
227.771194 0.000000
227.821331 0.000000
227.871468 0.000000
227.921604 0.000000
227.971741 0.000000
228.021878 0.000000
228.072015 0.000000
228.122151 0.000000
228.172288 0.000000
228.222425 0.000000
228.272562 0.000000
228.322698 0.000000
228.372835 0.000000
228.422972 0.000000
228.473108 0.000000
228.523245 0.000000
228.573382 0.000000
228.623519 0.000000
228.673655 0.000000
228.723792 0.000000
228.773929 0.000000
228.824066 0.000000
228.874202 0.000000
228.924339 0.000000
228.974476 0.000000
229.024613 0.000000
229.074749 0.000000
229.124886 0.000000
229.175023 0.000000
229.225160 0.000000
229.275296 0.000000
229.325433 0.000000
229.375570 0.000000
229.425706 0.000000
229.475843 0.000000
229.525980 0.000000
229.576117 0.000000
229.626253 0.000000
229.676390 0.000000
229.726527 0.000000
229.776664 0.000000
229.826800 0.000000
229.876937 0.000000
229.927074 0.000000
229.977211 0.000000
230.027347 0.000000
230.077484 0.000000
230.127621 0.000000
230.177758 0.000000
230.227894 0.000000
230.278031 0.000000
230.328168 0.000000
230.378304 0.000000
230.428441 0.000000
230.478578 0.000000
230.528715 0.000000
230.578851 0.000000
230.628988 0.000000
230.679125 0.000000
230.729262 0.000000
230.779398 0.000000
230.829535 0.000000
230.879672 0.000000
230.929809 0.000000
230.979945 0.000000
231.030082 0.000000
231.080219 0.000000
231.130356 0.000000
231.180492 0.000000
231.230629 0.000000
231.280766 0.000000
231.330902 0.000000
231.381039 0.000000
231.431176 0.000000
231.481313 0.000000
231.531449 0.000000
231.581586 0.000000
231.631723 0.000000
231.681860 0.000000
231.731996 0.000000
231.782133 0.000000
231.832270 0.000000
231.882407 0.000000
231.932543 0.000000
231.982680 0.000000
232.032817 0.000000
232.082954 0.000000
232.133090 0.000000
232.183227 0.000000
232.233364 0.000000
232.283500 0.000000
232.333637 0.000000
232.383774 0.000000
232.433911 0.000000
232.484047 0.000000
232.534184 0.000000
232.584321 0.000000
232.634458 0.000000
232.684594 0.000000
232.734731 0.000000
232.784868 0.000000
232.835005 0.000000
232.885141 0.000000
232.935278 0.000000
232.985415 0.000000
233.035552 0.000000
233.085688 0.000000
233.135825 0.000000
233.185962 0.000000
233.236098 0.000000
233.286235 0.000000
233.336372 0.000000
233.386509 0.000000
233.436645 0.000000
233.486782 0.000000
233.536919 0.000000
233.587056 0.000000
233.637192 0.000000
233.687329 0.000000
233.737466 0.000000
233.787603 0.000000
233.837739 0.000000
233.887876 0.000000
233.938013 0.000000
233.988149 0.000000
234.038286 0.000000
234.088423 0.000000
234.138560 0.000000
234.188696 0.000000
234.238833 0.000000
234.288970 0.000000
234.339107 0.000000
234.389243 0.000000
234.439380 0.000000
234.489517 0.000000
234.539654 0.000000
234.589790 0.000000
234.639927 0.000000
234.690064 0.000000
234.740201 0.000000
234.790337 0.000000
234.840474 0.000000
234.890611 0.000000
234.940747 0.000000
234.990884 0.000000
235.041021 0.000000
235.091158 0.000000
235.141294 0.000000
235.191431 0.000000
235.241568 0.000000
235.291705 0.000000
235.341841 0.000000
235.391978 0.000000
235.442115 0.000000
235.492252 0.000000
235.542388 0.000000
235.592525 0.000000
235.642662 0.000000
235.692799 0.000000
235.742935 0.000000
235.793072 0.000000
235.843209 0.000000
235.893345 0.000000
235.943482 0.000000
235.993619 0.000000
236.043756 0.000000
236.093892 0.000000
236.144029 0.000000
236.194166 0.000000
236.244303 0.000000
236.294439 0.000000
236.344576 0.000000
236.394713 0.000000
236.444850 0.000000
236.494986 0.000000
236.545123 0.000000
236.595260 0.000000
236.645397 0.000000
236.695533 0.000000
236.745670 0.000000
236.795807 0.000000
##END=
