##TITLE= TP_Ejercicio_2a [75 MHz ¹³C NMR en CDCl₃]
##JCAMP-DX= 5.00
##ORIGIN= LISA RMN DB
##DATA TYPE= NMR SPECTRUM
##DATA CLASS= XYDATA
##$BF1= 75.45
##$SFO1= 75.45
##$NUC1= <13C>
##XUNITS=	PPM
##YUNITS=	Intensity
##NPOINTS=	5262
##FIRSTX=	-26.973564
##LASTX=	236.795807
##FIRSTY=	129.000000
##LASTY=	77.000000
##XFACTOR= 1
##YFACTOR= 1
##MAXY= 2153.000000
##MINY= 0.000000
##DELTAX= 0.050137
##XYDATA=(X++(Y..Y))
-26.973564 129.000000
-26.923428 138.000000
-26.873291 81.000000
-26.823154 85.000000
-26.773017 0.000000
-26.722881 26.000000
-26.672744 79.000000
-26.622607 130.000000
-26.572470 123.000000
-26.522334 81.000000
-26.472197 65.000000
-26.422060 171.000000
-26.371923 86.000000
-26.321787 115.000000
-26.271650 121.000000
-26.221513 80.000000
-26.171376 82.000000
-26.121240 70.000000
-26.071103 120.000000
-26.020966 66.000000
-25.970830 99.000000
-25.920693 48.000000
-25.870556 112.000000
-25.820419 137.000000
-25.770283 85.000000
-25.720146 129.000000
-25.670009 61.000000
-25.619872 63.000000
-25.569736 127.000000
-25.519599 77.000000
-25.469462 94.000000
-25.419325 91.000000
-25.369189 131.000000
-25.319052 134.000000
-25.268915 91.000000
-25.218778 109.000000
-25.168642 111.000000
-25.118505 77.000000
-25.068368 132.000000
-25.018232 86.000000
-24.968095 118.000000
-24.917958 142.000000
-24.867821 54.000000
-24.817685 30.000000
-24.767548 110.000000
-24.717411 115.000000
-24.667274 89.000000
-24.617138 86.000000
-24.567001 37.000000
-24.516864 72.000000
-24.466727 100.000000
-24.416591 96.000000
-24.366454 100.000000
-24.316317 137.000000
-24.266180 111.000000
-24.216044 104.000000
-24.165907 146.000000
-24.115770 147.000000
-24.065634 156.000000
-24.015497 104.000000
-23.965360 84.000000
-23.915223 75.000000
-23.865087 98.000000
-23.814950 100.000000
-23.764813 127.000000
-23.714676 107.000000
-23.664540 108.000000
-23.614403 109.000000
-23.564266 69.000000
-23.514129 51.000000
-23.463993 39.000000
-23.413856 70.000000
-23.363719 147.000000
-23.313582 92.000000
-23.263446 111.000000
-23.213309 58.000000
-23.163172 0.000000
-23.113036 60.000000
-23.062899 99.000000
-23.012762 114.000000
-22.962625 79.000000
-22.912489 27.000000
-22.862352 72.000000
-22.812215 138.000000
-22.762078 139.000000
-22.711942 156.000000
-22.661805 87.000000
-22.611668 117.000000
-22.561531 120.000000
-22.511395 127.000000
-22.461258 62.000000
-22.411121 104.000000
-22.360985 62.000000
-22.310848 82.000000
-22.260711 105.000000
-22.210574 121.000000
-22.160438 63.000000
-22.110301 92.000000
-22.060164 73.000000
-22.010027 106.000000
-21.959891 114.000000
-21.909754 131.000000
-21.859617 136.000000
-21.809480 14.000000
-21.759344 102.000000
-21.709207 142.000000
-21.659070 66.000000
-21.608933 142.000000
-21.558797 156.000000
-21.508660 118.000000
-21.458523 120.000000
-21.408387 94.000000
-21.358250 48.000000
-21.308113 97.000000
-21.257976 87.000000
-21.207840 112.000000
-21.157703 117.000000
-21.107566 107.000000
-21.057429 86.000000
-21.007293 69.000000
-20.957156 69.000000
-20.907019 90.000000
-20.856882 76.000000
-20.806746 87.000000
-20.756609 173.000000
-20.706472 90.000000
-20.656335 139.000000
-20.606199 162.000000
-20.556062 151.000000
-20.505925 156.000000
-20.455789 116.000000
-20.405652 132.000000
-20.355515 53.000000
-20.305378 153.000000
-20.255242 105.000000
-20.205105 27.000000
-20.154968 1.000000
-20.104831 58.000000
-20.054695 147.000000
-20.004558 122.000000
-19.954421 102.000000
-19.904284 101.000000
-19.854148 104.000000
-19.804011 88.000000
-19.753874 124.000000
-19.703737 95.000000
-19.653601 116.000000
-19.603464 90.000000
-19.553327 91.000000
-19.503191 67.000000
-19.453054 138.000000
-19.402917 117.000000
-19.352780 76.000000
-19.302644 130.000000
-19.252507 116.000000
-19.202370 62.000000
-19.152233 81.000000
-19.102097 77.000000
-19.051960 27.000000
-19.001823 62.000000
-18.951686 109.000000
-18.901550 81.000000
-18.851413 55.000000
-18.801276 0.000000
-18.751139 68.000000
-18.701003 166.000000
-18.650866 80.000000
-18.600729 119.000000
-18.550593 69.000000
-18.500456 89.000000
-18.450319 136.000000
-18.400182 103.000000
-18.350046 94.000000
-18.299909 99.000000
-18.249772 64.000000
-18.199635 127.000000
-18.149499 138.000000
-18.099362 104.000000
-18.049225 123.000000
-17.999088 121.000000
-17.948952 53.000000
-17.898815 51.000000
-17.848678 90.000000
-17.798541 73.000000
-17.748405 113.000000
-17.698268 104.000000
-17.648131 94.000000
-17.597995 73.000000
-17.547858 99.000000
-17.497721 39.000000
-17.447584 71.000000
-17.397448 62.000000
-17.347311 86.000000
-17.297174 54.000000
-17.247037 164.000000
-17.196901 131.000000
-17.146764 121.000000
-17.096627 124.000000
-17.046490 96.000000
-16.996354 125.000000
-16.946217 154.000000
-16.896080 115.000000
-16.845943 127.000000
-16.795807 130.000000
-16.745670 106.000000
-16.695533 91.000000
-16.645397 111.000000
-16.595260 113.000000
-16.545123 167.000000
-16.494986 127.000000
-16.444850 156.000000
-16.394713 98.000000
-16.344576 76.000000
-16.294439 111.000000
-16.244303 114.000000
-16.194166 31.000000
-16.144029 32.000000
-16.093892 80.000000
-16.043756 54.000000
-15.993619 55.000000
-15.943482 57.000000
-15.893345 97.000000
-15.843209 85.000000
-15.793072 81.000000
-15.742935 71.000000
-15.692799 80.000000
-15.642662 54.000000
-15.592525 108.000000
-15.542388 111.000000
-15.492252 106.000000
-15.442115 108.000000
-15.391978 127.000000
-15.341841 133.000000
-15.291705 139.000000
-15.241568 87.000000
-15.191431 84.000000
-15.141294 99.000000
-15.091158 141.000000
-15.041021 151.000000
-14.990884 139.000000
-14.940747 45.000000
-14.890611 73.000000
-14.840474 37.000000
-14.790337 78.000000
-14.740201 161.000000
-14.690064 128.000000
-14.639927 150.000000
-14.589790 132.000000
-14.539654 105.000000
-14.489517 142.000000
-14.439380 75.000000
-14.389243 48.000000
-14.339107 78.000000
-14.288970 128.000000
-14.238833 53.000000
-14.188696 49.000000
-14.138560 48.000000
-14.088423 94.000000
-14.038286 134.000000
-13.988149 135.000000
-13.938013 124.000000
-13.887876 151.000000
-13.837739 54.000000
-13.787603 99.000000
-13.737466 85.000000
-13.687329 93.000000
-13.637192 90.000000
-13.587056 29.000000
-13.536919 63.000000
-13.486782 79.000000
-13.436645 102.000000
-13.386509 104.000000
-13.336372 128.000000
-13.286235 132.000000
-13.236098 135.000000
-13.185962 119.000000
-13.135825 137.000000
-13.085688 170.000000
-13.035552 159.000000
-12.985415 146.000000
-12.935278 150.000000
-12.885141 190.000000
-12.835005 140.000000
-12.784868 89.000000
-12.734731 47.000000
-12.684594 93.000000
-12.634458 93.000000
-12.584321 79.000000
-12.534184 93.000000
-12.484047 81.000000
-12.433911 98.000000
-12.383774 94.000000
-12.333637 81.000000
-12.283500 111.000000
-12.233364 88.000000
-12.183227 101.000000
-12.133090 102.000000
-12.082954 98.000000
-12.032817 142.000000
-11.982680 91.000000
-11.932543 54.000000
-11.882407 76.000000
-11.832270 82.000000
-11.782133 42.000000
-11.731996 132.000000
-11.681860 33.000000
-11.631723 16.000000
-11.581586 159.000000
-11.531449 94.000000
-11.481313 144.000000
-11.431176 90.000000
-11.381039 32.000000
-11.330902 172.000000
-11.280766 170.000000
-11.230629 105.000000
-11.180492 102.000000
-11.130356 35.000000
-11.080219 58.000000
-11.030082 109.000000
-10.979945 136.000000
-10.929809 106.000000
-10.879672 162.000000
-10.829535 109.000000
-10.779398 97.000000
-10.729262 99.000000
-10.679125 126.000000
-10.628988 99.000000
-10.578851 129.000000
-10.528715 80.000000
-10.478578 140.000000
-10.428441 129.000000
-10.378304 104.000000
-10.328168 61.000000
-10.278031 59.000000
-10.227894 94.000000
-10.177758 123.000000
-10.127621 70.000000
-10.077484 93.000000
-10.027347 100.000000
-9.977211 45.000000
-9.927074 98.000000
-9.876937 104.000000
-9.826800 103.000000
-9.776664 103.000000
-9.726527 141.000000
-9.676390 144.000000
-9.626253 137.000000
-9.576117 42.000000
-9.525980 158.000000
-9.475843 114.000000
-9.425706 73.000000
-9.375570 135.000000
-9.325433 103.000000
-9.275296 126.000000
-9.225160 102.000000
-9.175023 24.000000
-9.124886 44.000000
-9.074749 136.000000
-9.024613 99.000000
-8.974476 111.000000
-8.924339 8.000000
-8.874202 88.000000
-8.824066 109.000000
-8.773929 93.000000
-8.723792 97.000000
-8.673655 124.000000
-8.623519 101.000000
-8.573382 76.000000
-8.523245 100.000000
-8.473108 61.000000
-8.422972 63.000000
-8.372835 75.000000
-8.322698 114.000000
-8.272562 121.000000
-8.222425 154.000000
-8.172288 139.000000
-8.122151 117.000000
-8.072015 67.000000
-8.021878 123.000000
-7.971741 120.000000
-7.921604 99.000000
-7.871468 97.000000
-7.821331 50.000000
-7.771194 107.000000
-7.721057 122.000000
-7.670921 122.000000
-7.620784 111.000000
-7.570647 79.000000
-7.520510 62.000000
-7.470374 80.000000
-7.420237 82.000000
-7.370100 79.000000
-7.319964 138.000000
-7.269827 116.000000
-7.219690 109.000000
-7.169553 146.000000
-7.119417 136.000000
-7.069280 114.000000
-7.019143 53.000000
-6.969006 60.000000
-6.918870 104.000000
-6.868733 97.000000
-6.818596 120.000000
-6.768459 133.000000
-6.718323 71.000000
-6.668186 112.000000
-6.618049 106.000000
-6.567912 84.000000
-6.517776 121.000000
-6.467639 135.000000
-6.417502 34.000000
-6.367366 67.000000
-6.317229 77.000000
-6.267092 129.000000
-6.216955 111.000000
-6.166819 93.000000
-6.116682 126.000000
-6.066545 185.000000
-6.016408 84.000000
-5.966272 44.000000
-5.916135 40.000000
-5.865998 0.000000
-5.815861 91.000000
-5.765725 49.000000
-5.715588 81.000000
-5.665451 95.000000
-5.615314 72.000000
-5.565178 116.000000
-5.515041 124.000000
-5.464904 90.000000
-5.414768 103.000000
-5.364631 106.000000
-5.314494 132.000000
-5.264357 135.000000
-5.214221 38.000000
-5.164084 105.000000
-5.113947 132.000000
-5.063810 123.000000
-5.013674 134.000000
-4.963537 94.000000
-4.913400 141.000000
-4.863263 129.000000
-4.813127 82.000000
-4.762990 64.000000
-4.712853 125.000000
-4.662716 98.000000
-4.612580 103.000000
-4.562443 127.000000
-4.512306 49.000000
-4.462170 89.000000
-4.412033 94.000000
-4.361896 54.000000
-4.311759 84.000000
-4.261623 114.000000
-4.211486 78.000000
-4.161349 101.000000
-4.111212 164.000000
-4.061076 116.000000
-4.010939 47.000000
-3.960802 59.000000
-3.910665 101.000000
-3.860529 103.000000
-3.810392 99.000000
-3.760255 75.000000
-3.710119 110.000000
-3.659982 113.000000
-3.609845 56.000000
-3.559708 184.000000
-3.509572 81.000000
-3.459435 94.000000
-3.409298 76.000000
-3.359161 77.000000
-3.309025 95.000000
-3.258888 97.000000
-3.208751 103.000000
-3.158614 110.000000
-3.108478 134.000000
-3.058341 150.000000
-3.008204 71.000000
-2.958067 121.000000
-2.907931 127.000000
-2.857794 101.000000
-2.807657 93.000000
-2.757521 62.000000
-2.707384 69.000000
-2.657247 84.000000
-2.607110 76.000000
-2.556974 105.000000
-2.506837 75.000000
-2.456700 95.000000
-2.406563 96.000000
-2.356427 72.000000
-2.306290 65.000000
-2.256153 113.000000
-2.206016 129.000000
-2.155880 108.000000
-2.105743 88.000000
-2.055606 48.000000
-2.005469 57.000000
-1.955333 86.000000
-1.905196 90.000000
-1.855059 79.000000
-1.804923 60.000000
-1.754786 65.000000
-1.704649 144.000000
-1.654512 144.000000
-1.604376 73.000000
-1.554239 74.000000
-1.504102 39.000000
-1.453965 81.000000
-1.403829 122.000000
-1.353692 97.000000
-1.303555 83.000000
-1.253418 91.000000
-1.203282 0.000000
-1.153145 55.000000
-1.103008 57.000000
-1.052871 100.000000
-1.002735 111.000000
-0.952598 85.000000
-0.902461 85.000000
-0.852325 88.000000
-0.802188 48.000000
-0.752051 134.000000
-0.701914 138.000000
-0.651778 30.000000
-0.601641 108.000000
-0.551504 129.000000
-0.501367 61.000000
-0.451231 108.000000
-0.401094 52.000000
-0.350957 75.000000
-0.300820 121.000000
-0.250684 123.000000
-0.200547 147.000000
-0.150410 153.000000
-0.100273 93.000000
-0.050137 106.000000
-0.000000 103.000000
0.050137 241.000000
0.100273 251.000000
0.150410 75.000000
0.200547 66.000000
0.250684 103.000000
0.300820 104.000000
0.350957 138.000000
0.401094 145.000000
0.451231 110.000000
0.501367 112.000000
0.551504 109.000000
0.601641 141.000000
0.651778 142.000000
0.701914 53.000000
0.752051 74.000000
0.802188 76.000000
0.852325 73.000000
0.902461 84.000000
0.952598 87.000000
1.002735 112.000000
1.052871 153.000000
1.103008 154.000000
1.153145 67.000000
1.203282 112.000000
1.253418 57.000000
1.303555 132.000000
1.353692 114.000000
1.403829 118.000000
1.453965 90.000000
1.504102 91.000000
1.554239 42.000000
1.604376 39.000000
1.654512 112.000000
1.704649 84.000000
1.754786 108.000000
1.804923 99.000000
1.855059 119.000000
1.905196 66.000000
1.955333 105.000000
2.005469 123.000000
2.055606 79.000000
2.105743 40.000000
2.155880 122.000000
2.206016 132.000000
2.256153 145.000000
2.306290 127.000000
2.356427 56.000000
2.406563 129.000000
2.456700 136.000000
2.506837 96.000000
2.556974 104.000000
2.607110 112.000000
2.657247 113.000000
2.707384 150.000000
2.757521 80.000000
2.807657 116.000000
2.857794 75.000000
2.907931 68.000000
2.958067 126.000000
3.008204 107.000000
3.058341 117.000000
3.108478 120.000000
3.158614 73.000000
3.208751 79.000000
3.258888 57.000000
3.309025 117.000000
3.359161 116.000000
3.409298 125.000000
3.459435 47.000000
3.509572 91.000000
3.559708 105.000000
3.609845 106.000000
3.659982 78.000000
3.710119 32.000000
3.760255 93.000000
3.810392 135.000000
3.860529 61.000000
3.910665 94.000000
3.960802 101.000000
4.010939 32.000000
4.061076 111.000000
4.111212 89.000000
4.161349 115.000000
4.211486 115.000000
4.261623 49.000000
4.311759 88.000000
4.361896 82.000000
4.412033 88.000000
4.462170 89.000000
4.512306 121.000000
4.562443 127.000000
4.612580 128.000000
4.662716 108.000000
4.712853 73.000000
4.762990 108.000000
4.813127 126.000000
4.863263 192.000000
4.913400 146.000000
4.963537 106.000000
5.013674 126.000000
5.063810 109.000000
5.113947 70.000000
5.164084 103.000000
5.214221 81.000000
5.264357 106.000000
5.314494 132.000000
5.364631 124.000000
5.414768 128.000000
5.464904 105.000000
5.515041 54.000000
5.565178 94.000000
5.615314 90.000000
5.665451 86.000000
5.715588 116.000000
5.765725 105.000000
5.815861 110.000000
5.865998 156.000000
5.916135 147.000000
5.966272 137.000000
6.016408 124.000000
6.066545 127.000000
6.116682 59.000000
6.166819 129.000000
6.216955 155.000000
6.267092 159.000000
6.317229 107.000000
6.367366 113.000000
6.417502 75.000000
6.467639 5.000000
6.517776 135.000000
6.567912 130.000000
6.618049 83.000000
6.668186 87.000000
6.718323 65.000000
6.768459 0.000000
6.818596 130.000000
6.868733 147.000000
6.918870 151.000000
6.969006 139.000000
7.019143 93.000000
7.069280 100.000000
7.119417 57.000000
7.169553 97.000000
7.219690 86.000000
7.269827 105.000000
7.319964 147.000000
7.370100 150.000000
7.420237 127.000000
7.470374 108.000000
7.520510 70.000000
7.570647 49.000000
7.620784 61.000000
7.670921 123.000000
7.721057 127.000000
7.771194 99.000000
7.821331 108.000000
7.871468 120.000000
7.921604 93.000000
7.971741 112.000000
8.021878 117.000000
8.072015 69.000000
8.122151 63.000000
8.172288 91.000000
8.222425 64.000000
8.272562 107.000000
8.322698 88.000000
8.372835 47.000000
8.422972 88.000000
8.473108 73.000000
8.523245 86.000000
8.573382 130.000000
8.623519 57.000000
8.673655 12.000000
8.723792 110.000000
8.773929 78.000000
8.824066 84.000000
8.874202 112.000000
8.924339 15.000000
8.974476 112.000000
9.024613 90.000000
9.074749 94.000000
9.124886 111.000000
9.175023 142.000000
9.225160 65.000000
9.275296 121.000000
9.325433 123.000000
9.375570 122.000000
9.425706 76.000000
9.475843 38.000000
9.525980 110.000000
9.576117 101.000000
9.626253 111.000000
9.676390 138.000000
9.726527 139.000000
9.776664 43.000000
9.826800 83.000000
9.876937 85.000000
9.927074 64.000000
9.977211 78.000000
10.027347 108.000000
10.077484 111.000000
10.127621 104.000000
10.177758 110.000000
10.227894 39.000000
10.278031 34.000000
10.328168 37.000000
10.378304 82.000000
10.428441 86.000000
10.478578 108.000000
10.528715 97.000000
10.578851 70.000000
10.628988 95.000000
10.679125 100.000000
10.729262 145.000000
10.779398 124.000000
10.829535 129.000000
10.879672 46.000000
10.929809 97.000000
10.979945 80.000000
11.030082 97.000000
11.080219 160.000000
11.130356 49.000000
11.180492 96.000000
11.230629 64.000000
11.280766 102.000000
11.330902 103.000000
11.381039 96.000000
11.431176 85.000000
11.481313 89.000000
11.531449 127.000000
11.581586 80.000000
11.631723 135.000000
11.681860 94.000000
11.731996 124.000000
11.782133 124.000000
11.832270 86.000000
11.882407 118.000000
11.932543 113.000000
11.982680 85.000000
12.032817 110.000000
12.082954 112.000000
12.133090 60.000000
12.183227 87.000000
12.233364 65.000000
12.283500 106.000000
12.333637 92.000000
12.383774 113.000000
12.433911 89.000000
12.484047 135.000000
12.534184 127.000000
12.584321 118.000000
12.634458 72.000000
12.684594 98.000000
12.734731 50.000000
12.784868 85.000000
12.835005 109.000000
12.885141 110.000000
12.935278 73.000000
12.985415 102.000000
13.035552 127.000000
13.085688 81.000000
13.135825 60.000000
13.185962 114.000000
13.236098 98.000000
13.286235 102.000000
13.336372 69.000000
13.386509 140.000000
13.436645 179.000000
13.486782 121.000000
13.536919 82.000000
13.587056 34.000000
13.637192 135.000000
13.687329 106.000000
13.737466 115.000000
13.787603 144.000000
13.837739 147.000000
13.887876 68.000000
13.938013 101.000000
13.988149 174.000000
14.038286 177.000000
14.088423 178.000000
14.138560 70.000000
14.188696 115.000000
14.238833 120.000000
14.288970 107.000000
14.339107 114.000000
14.389243 55.000000
14.439380 45.000000
14.489517 51.000000
14.539654 85.000000
14.589790 96.000000
14.639927 95.000000
14.690064 115.000000
14.740201 117.000000
14.790337 133.000000
14.840474 73.000000
14.890611 40.000000
14.940747 64.000000
14.990884 86.000000
15.041021 140.000000
15.091158 116.000000
15.141294 118.000000
15.191431 87.000000
15.241568 22.000000
15.291705 138.000000
15.341841 91.000000
15.391978 98.000000
15.442115 84.000000
15.492252 115.000000
15.542388 109.000000
15.592525 129.000000
15.642662 133.000000
15.692799 119.000000
15.742935 140.000000
15.793072 62.000000
15.843209 63.000000
15.893345 131.000000
15.943482 133.000000
15.993619 78.000000
16.043756 104.000000
16.093892 98.000000
16.144029 99.000000
16.194166 127.000000
16.244303 133.000000
16.294439 115.000000
16.344576 84.000000
16.394713 132.000000
16.444850 45.000000
16.494986 89.000000
16.545123 77.000000
16.595260 120.000000
16.645397 123.000000
16.695533 127.000000
16.745670 111.000000
16.795807 76.000000
16.845943 77.000000
16.896080 38.000000
16.946217 57.000000
16.996354 97.000000
17.046490 60.000000
17.096627 114.000000
17.146764 104.000000
17.196901 85.000000
17.247037 138.000000
17.297174 142.000000
17.347311 160.000000
17.397448 91.000000
17.447584 84.000000
17.497721 102.000000
17.547858 93.000000
17.597995 112.000000
17.648131 70.000000
17.698268 46.000000
17.748405 67.000000
17.798541 147.000000
17.848678 92.000000
17.898815 95.000000
17.948952 91.000000
17.999088 29.000000
18.049225 118.000000
18.099362 114.000000
18.149499 95.000000
18.199635 126.000000
18.249772 123.000000
18.299909 144.000000
18.350046 146.000000
18.400182 133.000000
18.450319 135.000000
18.500456 66.000000
18.550593 55.000000
18.600729 171.000000
18.650866 93.000000
18.701003 108.000000
18.751139 72.000000
18.801276 105.000000
18.851413 113.000000
18.901550 114.000000
18.951686 99.000000
19.001823 58.000000
19.051960 70.000000
19.102097 103.000000
19.152233 106.000000
19.202370 110.000000
19.252507 114.000000
19.302644 102.000000
19.352780 77.000000
19.402917 132.000000
19.453054 107.000000
19.503191 133.000000
19.553327 137.000000
19.603464 123.000000
19.653601 7.000000
19.703737 79.000000
19.753874 102.000000
19.804011 168.000000
19.854148 170.000000
19.904284 75.000000
19.954421 76.000000
20.004558 87.000000
20.054695 106.000000
20.104831 107.000000
20.154968 73.000000
20.205105 83.000000
20.255242 131.000000
20.305378 103.000000
20.355515 108.000000
20.405652 72.000000
20.455789 38.000000
20.505925 39.000000
20.556062 69.000000
20.606199 66.000000
20.656335 116.000000
20.706472 173.000000
20.756609 63.000000
20.806746 33.000000
20.856882 105.000000
20.907019 93.000000
20.957156 57.000000
21.007293 32.000000
21.057429 46.000000
21.107566 66.000000
21.157703 110.000000
21.207840 117.000000
21.257976 91.000000
21.308113 100.000000
21.358250 101.000000
21.408387 119.000000
21.458523 186.000000
21.508660 118.000000
21.558797 104.000000
21.608933 88.000000
21.659070 68.000000
21.709207 88.000000
21.759344 87.000000
21.809480 136.000000
21.859617 105.000000
21.909754 105.000000
21.959891 149.000000
22.010027 151.000000
22.060164 91.000000
22.110301 89.000000
22.160438 86.000000
22.210574 88.000000
22.260711 109.000000
22.310848 118.000000
22.360985 134.000000
22.411121 118.000000
22.461258 101.000000
22.511395 100.000000
22.561531 71.000000
22.611668 158.000000
22.661805 49.000000
22.711942 56.000000
22.762078 123.000000
22.812215 90.000000
22.862352 68.000000
22.912489 105.000000
22.962625 61.000000
23.012762 106.000000
23.062899 103.000000
23.113036 112.000000
23.163172 180.000000
23.213309 90.000000
23.263446 126.000000
23.313582 105.000000
23.363719 125.000000
23.413856 132.000000
23.463993 67.000000
23.514129 58.000000
23.564266 138.000000
23.614403 66.000000
23.664540 108.000000
23.714676 65.000000
23.764813 80.000000
23.814950 120.000000
23.865087 93.000000
23.915223 52.000000
23.965360 103.000000
24.015497 161.000000
24.065634 109.000000
24.115770 99.000000
24.165907 59.000000
24.216044 78.000000
24.266180 115.000000
24.316317 94.000000
24.366454 84.000000
24.416591 85.000000
24.466727 98.000000
24.516864 99.000000
24.567001 144.000000
24.617138 121.000000
24.667274 95.000000
24.717411 119.000000
24.767548 136.000000
24.817685 130.000000
24.867821 109.000000
24.917958 158.000000
24.968095 128.000000
25.018232 61.000000
25.068368 81.000000
25.118505 72.000000
25.168642 148.000000
25.218778 133.000000
25.268915 139.000000
25.319052 89.000000
25.369189 122.000000
25.419325 61.000000
25.469462 120.000000
25.519599 139.000000
25.569736 49.000000
25.619872 80.000000
25.670009 74.000000
25.720146 72.000000
25.770283 73.000000
25.820419 137.000000
25.870556 95.000000
25.920693 39.000000
25.970830 36.000000
26.020966 55.000000
26.071103 74.000000
26.121240 61.000000
26.171376 92.000000
26.221513 90.000000
26.271650 88.000000
26.321787 154.000000
26.371923 62.000000
26.422060 49.000000
26.472197 45.000000
26.522334 17.000000
26.572470 77.000000
26.622607 91.000000
26.672744 101.000000
26.722881 127.000000
26.773017 69.000000
26.823154 70.000000
26.873291 72.000000
26.923428 84.000000
26.973564 73.000000
27.023701 91.000000
27.073838 137.000000
27.123974 141.000000
27.174111 96.000000
27.224248 126.000000
27.274385 127.000000
27.324521 8.000000
27.374658 56.000000
27.424795 59.000000
27.474932 22.000000
27.525068 97.000000
27.575205 110.000000
27.625342 45.000000
27.675479 99.000000
27.725615 52.000000
27.775752 85.000000
27.825889 66.000000
27.876026 85.000000
27.926162 150.000000
27.976299 154.000000
28.026436 126.000000
28.076572 104.000000
28.126709 67.000000
28.176846 67.000000
28.226983 84.000000
28.277119 78.000000
28.327256 114.000000
28.377393 110.000000
28.427530 101.000000
28.477666 104.000000
28.527803 106.000000
28.577940 148.000000
28.628077 125.000000
28.678213 171.000000
28.728350 114.000000
28.778487 141.000000
28.828624 135.000000
28.878760 124.000000
28.928897 89.000000
28.979034 33.000000
29.029170 81.000000
29.079307 116.000000
29.129444 105.000000
29.179581 65.000000
29.229717 102.000000
29.279854 44.000000
29.329991 150.000000
29.380128 151.000000
29.430264 72.000000
29.480401 125.000000
29.530538 139.000000
29.580675 146.000000
29.630811 171.000000
29.680948 145.000000
29.731085 138.000000
29.781222 127.000000
29.831358 126.000000
29.881495 134.000000
29.931632 120.000000
29.981768 100.000000
30.031905 39.000000
30.082042 30.000000
30.132179 44.000000
30.182315 90.000000
30.232452 96.000000
30.282589 118.000000
30.332726 114.000000
30.382862 38.000000
30.432999 90.000000
30.483136 48.000000
30.533273 76.000000
30.583409 72.000000
30.633546 45.000000
30.683683 92.000000
30.733820 96.000000
30.783956 84.000000
30.834093 74.000000
30.884230 78.000000
30.934366 123.000000
30.984503 165.000000
31.034640 70.000000
31.084777 87.000000
31.134913 88.000000
31.185050 57.000000
31.235187 79.000000
31.285324 105.000000
31.335460 97.000000
31.385597 118.000000
31.435734 105.000000
31.485871 90.000000
31.536007 130.000000
31.586144 57.000000
31.636281 102.000000
31.686418 142.000000
31.736554 105.000000
31.786691 106.000000
31.836828 105.000000
31.886964 90.000000
31.937101 151.000000
31.987238 78.000000
32.037375 120.000000
32.087511 130.000000
32.137648 168.000000
32.187785 86.000000
32.237922 89.000000
32.288058 68.000000
32.338195 78.000000
32.388332 82.000000
32.438469 94.000000
32.488605 63.000000
32.538742 33.000000
32.588879 52.000000
32.639015 136.000000
32.689152 137.000000
32.739289 118.000000
32.789426 109.000000
32.839562 96.000000
32.889699 944.000000
32.939836 1120.000000
32.989973 721.000000
33.040109 192.000000
33.090246 130.000000
33.140383 161.000000
33.190520 70.000000
33.240656 99.000000
33.290793 102.000000
33.340930 97.000000
33.391067 130.000000
33.441203 178.000000
33.491340 116.000000
33.541477 118.000000
33.591613 104.000000
33.641750 97.000000
33.691887 99.000000
33.742024 83.000000
33.792160 108.000000
33.842297 67.000000
33.892434 130.000000
33.942571 86.000000
33.992707 86.000000
34.042844 132.000000
34.092981 127.000000
34.143118 148.000000
34.193254 107.000000
34.243391 115.000000
34.293528 117.000000
34.343665 123.000000
34.393801 126.000000
34.443938 82.000000
34.494075 32.000000
34.544211 121.000000
34.594348 61.000000
34.644485 110.000000
34.694622 115.000000
34.744758 49.000000
34.794895 125.000000
34.845032 130.000000
34.895169 89.000000
34.945305 129.000000
34.995442 79.000000
35.045579 95.000000
35.095716 97.000000
35.145852 83.000000
35.195989 85.000000
35.246126 70.000000
35.296263 53.000000
35.346399 165.000000
35.396536 167.000000
35.446673 115.000000
35.496809 100.000000
35.546946 85.000000
35.597083 65.000000
35.647220 64.000000
35.697356 106.000000
35.747493 85.000000
35.797630 94.000000
35.847767 92.000000
35.897903 107.000000
35.948040 173.000000
35.998177 90.000000
36.048314 81.000000
36.098450 117.000000
36.148587 21.000000
36.198724 36.000000
36.248861 100.000000
36.298997 96.000000
36.349134 90.000000
36.399271 108.000000
36.449407 109.000000
36.499544 77.000000
36.549681 37.000000
36.599818 42.000000
36.649954 0.000000
36.700091 91.000000
36.750228 131.000000
36.800365 87.000000
36.850501 78.000000
36.900638 48.000000
36.950775 52.000000
37.000912 103.000000
37.051048 131.000000
37.101185 96.000000
37.151322 113.000000
37.201459 119.000000
37.251595 119.000000
37.301732 183.000000
37.351869 120.000000
37.402005 114.000000
37.452142 92.000000
37.502279 17.000000
37.552416 88.000000
37.602552 103.000000
37.652689 88.000000
37.702826 144.000000
37.752963 95.000000
37.803099 147.000000
37.853236 86.000000
37.903373 116.000000
37.953510 84.000000
38.003646 75.000000
38.053783 73.000000
38.103920 71.000000
38.154057 70.000000
38.204193 125.000000
38.254330 133.000000
38.304467 0.000000
38.354603 121.000000
38.404740 99.000000
38.454877 136.000000
38.505014 133.000000
38.555150 59.000000
38.605287 67.000000
38.655424 103.000000
38.705561 106.000000
38.755697 140.000000
38.805834 151.000000
38.855971 157.000000
38.906108 158.000000
38.956244 165.000000
39.006381 69.000000
39.056518 170.000000
39.106655 109.000000
39.156791 53.000000
39.206928 62.000000
39.257065 99.000000
39.307201 102.000000
39.357338 108.000000
39.407475 68.000000
39.457612 124.000000
39.507748 104.000000
39.557885 160.000000
39.608022 111.000000
39.658159 136.000000
39.708295 113.000000
39.758432 168.000000
39.808569 106.000000
39.858706 87.000000
39.908842 87.000000
39.958979 52.000000
40.009116 76.000000
40.059253 118.000000
40.109389 71.000000
40.159526 75.000000
40.209663 79.000000
40.259799 87.000000
40.309936 88.000000
40.360073 105.000000
40.410210 115.000000
40.460346 103.000000
40.510483 69.000000
40.560620 130.000000
40.610757 137.000000
40.660893 164.000000
40.711030 102.000000
40.761167 76.000000
40.811304 86.000000
40.861440 87.000000
40.911577 141.000000
40.961714 142.000000
41.011851 85.000000
41.061987 75.000000
41.112124 65.000000
41.162261 117.000000
41.212397 163.000000
41.262534 166.000000
41.312671 55.000000
41.362808 38.000000
41.412944 88.000000
41.463081 111.000000
41.513218 158.000000
41.563355 117.000000
41.613491 126.000000
41.663628 127.000000
41.713765 149.000000
41.763902 154.000000
41.814038 135.000000
41.864175 139.000000
41.914312 72.000000
41.964448 132.000000
42.014585 134.000000
42.064722 81.000000
42.114859 103.000000
42.164995 45.000000
42.215132 59.000000
42.265269 54.000000
42.315406 121.000000
42.365542 123.000000
42.415679 22.000000
42.465816 54.000000
42.515953 85.000000
42.566089 76.000000
42.616226 110.000000
42.666363 147.000000
42.716500 28.000000
42.766636 112.000000
42.816773 117.000000
42.866910 48.000000
42.917046 87.000000
42.967183 65.000000
43.017320 97.000000
43.067457 100.000000
43.117593 127.000000
43.167730 185.000000
43.217867 140.000000
43.268004 96.000000
43.318140 99.000000
43.368277 140.000000
43.418414 142.000000
43.468551 70.000000
43.518687 0.000000
43.568824 71.000000
43.618961 115.000000
43.669098 76.000000
43.719234 69.000000
43.769371 53.000000
43.819508 60.000000
43.869644 78.000000
43.919781 70.000000
43.969918 123.000000
44.020055 142.000000
44.070191 54.000000
44.120328 105.000000
44.170465 113.000000
44.220602 104.000000
44.270738 135.000000
44.320875 129.000000
44.371012 91.000000
44.421149 50.000000
44.471285 60.000000
44.521422 74.000000
44.571559 129.000000
44.621696 91.000000
44.671832 150.000000
44.721969 161.000000
44.772106 147.000000
44.822242 97.000000
44.872379 123.000000
44.922516 73.000000
44.972653 85.000000
45.022789 89.000000
45.072926 90.000000
45.123063 98.000000
45.173200 124.000000
45.223336 132.000000
45.273473 82.000000
45.323610 105.000000
45.373747 110.000000
45.423883 97.000000
45.474020 79.000000
45.524157 131.000000
45.574294 127.000000
45.624430 99.000000
45.674567 82.000000
45.724704 136.000000
45.774840 141.000000
45.824977 83.000000
45.875114 157.000000
45.925251 131.000000
45.975387 155.000000
46.025524 165.000000
46.075661 166.000000
46.125798 105.000000
46.175934 89.000000
46.226071 93.000000
46.276208 35.000000
46.326345 64.000000
46.376481 121.000000
46.426618 54.000000
46.476755 102.000000
46.526892 87.000000
46.577028 78.000000
46.627165 127.000000
46.677302 120.000000
46.727438 72.000000
46.777575 70.000000
46.827712 33.000000
46.877849 91.000000
46.927985 185.000000
46.978122 191.000000
47.028259 115.000000
47.078396 105.000000
47.128532 48.000000
47.178669 87.000000
47.228806 141.000000
47.278943 99.000000
47.329079 93.000000
47.379216 133.000000
47.429353 136.000000
47.479490 124.000000
47.529626 147.000000
47.579763 104.000000
47.629900 129.000000
47.680036 98.000000
47.730173 140.000000
47.780310 119.000000
47.830447 124.000000
47.880583 97.000000
47.930720 105.000000
47.980857 106.000000
48.030994 85.000000
48.081130 85.000000
48.131267 97.000000
48.181404 86.000000
48.231541 90.000000
48.281677 108.000000
48.331814 137.000000
48.381951 131.000000
48.432088 42.000000
48.482224 46.000000
48.532361 67.000000
48.582498 118.000000
48.632634 183.000000
48.682771 74.000000
48.732908 49.000000
48.783045 101.000000
48.833181 115.000000
48.883318 158.000000
48.933455 79.000000
48.983592 59.000000
49.033728 105.000000
49.083865 112.000000
49.134002 56.000000
49.184139 138.000000
49.234275 94.000000
49.284412 84.000000
49.334549 85.000000
49.384686 39.000000
49.434822 128.000000
49.484959 146.000000
49.535096 148.000000
49.585232 99.000000
49.635369 102.000000
49.685506 174.000000
49.735643 117.000000
49.785779 124.000000
49.835916 92.000000
49.886053 83.000000
49.936190 133.000000
49.986326 127.000000
50.036463 107.000000
50.086600 130.000000
50.136737 84.000000
50.186873 151.000000
50.237010 93.000000
50.287147 69.000000
50.337284 93.000000
50.387420 38.000000
50.437557 137.000000
50.487694 119.000000
50.537830 105.000000
50.587967 72.000000
50.638104 132.000000
50.688241 86.000000
50.738377 109.000000
50.788514 103.000000
50.838651 112.000000
50.888788 82.000000
50.938924 45.000000
50.989061 127.000000
51.039198 110.000000
51.089335 114.000000
51.139471 114.000000
51.189608 112.000000
51.239745 115.000000
51.289881 117.000000
51.340018 109.000000
51.390155 127.000000
51.440292 148.000000
51.490428 81.000000
51.540565 125.000000
51.590702 102.000000
51.640839 136.000000
51.690975 78.000000
51.741112 147.000000
51.791249 141.000000
51.841386 193.000000
51.891522 141.000000
51.941659 146.000000
51.991796 94.000000
52.041933 83.000000
52.092069 90.000000
52.142206 38.000000
52.192343 40.000000
52.242479 119.000000
52.292616 155.000000
52.342753 126.000000
52.392890 99.000000
52.443026 90.000000
52.493163 155.000000
52.543300 84.000000
52.593437 67.000000
52.643573 107.000000
52.693710 109.000000
52.743847 102.000000
52.793984 82.000000
52.844120 114.000000
52.894257 122.000000
52.944394 123.000000
52.994531 119.000000
53.044667 95.000000
53.094804 100.000000
53.144941 91.000000
53.195077 138.000000
53.245214 93.000000
53.295351 66.000000
53.345488 112.000000
53.395624 112.000000
53.445761 107.000000
53.495898 124.000000
53.546035 76.000000
53.596171 82.000000
53.646308 121.000000
53.696445 75.000000
53.746582 124.000000
53.796718 57.000000
53.846855 111.000000
53.896992 103.000000
53.947129 111.000000
53.997265 151.000000
54.047402 161.000000
54.097539 80.000000
54.147675 97.000000
54.197812 75.000000
54.247949 50.000000
54.298086 107.000000
54.348222 88.000000
54.398359 90.000000
54.448496 109.000000
54.498633 1.000000
54.548769 11.000000
54.598906 200.000000
54.649043 206.000000
54.699180 109.000000
54.749316 88.000000
54.799453 84.000000
54.849590 102.000000
54.899727 96.000000
54.949863 115.000000
55.000000 41.000000
55.050137 88.000000
55.100273 127.000000
55.150410 120.000000
55.200547 82.000000
55.250684 77.000000
55.300820 102.000000
55.350957 51.000000
55.401094 102.000000
55.451231 107.000000
55.501367 72.000000
55.551504 79.000000
55.601641 29.000000
55.651778 81.000000
55.701914 120.000000
55.752051 103.000000
55.802188 115.000000
55.852325 117.000000
55.902461 92.000000
55.952598 144.000000
56.002735 149.000000
56.052871 74.000000
56.103008 76.000000
56.153145 65.000000
56.203282 132.000000
56.253418 107.000000
56.303555 150.000000
56.353692 130.000000
56.403829 138.000000
56.453965 69.000000
56.504102 100.000000
56.554239 125.000000
56.604376 142.000000
56.654512 70.000000
56.704649 3.000000
56.754786 114.000000
56.804923 131.000000
56.855059 168.000000
56.905196 87.000000
56.955333 108.000000
57.005469 52.000000
57.055606 56.000000
57.105743 59.000000
57.155880 114.000000
57.206016 52.000000
57.256153 47.000000
57.306290 91.000000
57.356427 85.000000
57.406563 133.000000
57.456700 59.000000
57.506837 88.000000
57.556974 105.000000
57.607110 106.000000
57.657247 108.000000
57.707384 53.000000
57.757521 74.000000
57.807657 87.000000
57.857794 88.000000
57.907931 132.000000
57.958067 119.000000
58.008204 120.000000
58.058341 84.000000
58.108478 99.000000
58.158614 212.000000
58.208751 69.000000
58.258888 118.000000
58.309025 111.000000
58.359161 78.000000
58.409298 118.000000
58.459435 120.000000
58.509572 65.000000
58.559708 28.000000
58.609845 73.000000
58.659982 47.000000
58.710119 93.000000
58.760255 109.000000
58.810392 128.000000
58.860529 133.000000
58.910665 111.000000
58.960802 92.000000
59.010939 103.000000
59.061076 109.000000
59.111212 113.000000
59.161349 83.000000
59.211486 87.000000
59.261623 87.000000
59.311759 104.000000
59.361896 144.000000
59.412033 98.000000
59.462170 45.000000
59.512306 44.000000
59.562443 51.000000
59.612580 94.000000
59.662716 97.000000
59.712853 81.000000
59.762990 129.000000
59.813127 124.000000
59.863263 153.000000
59.913400 125.000000
59.963537 114.000000
60.013674 95.000000
60.063810 124.000000
60.113947 115.000000
60.164084 103.000000
60.214221 200.000000
60.264357 86.000000
60.314494 112.000000
60.364631 136.000000
60.414768 132.000000
60.464904 103.000000
60.515041 99.000000
60.565178 131.000000
60.615314 147.000000
60.665451 61.000000
60.715588 74.000000
60.765725 106.000000
60.815861 74.000000
60.865998 115.000000
60.916135 91.000000
60.966272 93.000000
61.016408 132.000000
61.066545 191.000000
61.116682 90.000000
61.166819 136.000000
61.216955 102.000000
61.267092 80.000000
61.317229 16.000000
61.367366 30.000000
61.417502 76.000000
61.467639 76.000000
61.517776 85.000000
61.567912 137.000000
61.618049 142.000000
61.668186 13.000000
61.718323 70.000000
61.768459 132.000000
61.818596 77.000000
61.868733 81.000000
61.918870 66.000000
61.969006 113.000000
62.019143 118.000000
62.069280 57.000000
62.119417 147.000000
62.169553 177.000000
62.219690 99.000000
62.269827 92.000000
62.319964 47.000000
62.370100 117.000000
62.420237 96.000000
62.470374 86.000000
62.520510 108.000000
62.570647 95.000000
62.620784 138.000000
62.670921 170.000000
62.721057 142.000000
62.771194 81.000000
62.821331 85.000000
62.871468 69.000000
62.921604 139.000000
62.971741 177.000000
63.021878 77.000000
63.072015 68.000000
63.122151 108.000000
63.172288 32.000000
63.222425 73.000000
63.272562 150.000000
63.322698 90.000000
63.372835 151.000000
63.422972 159.000000
63.473108 92.000000
63.523245 120.000000
63.573382 24.000000
63.623519 108.000000
63.673655 132.000000
63.723792 97.000000
63.773929 101.000000
63.824066 89.000000
63.874202 53.000000
63.924339 60.000000
63.974476 98.000000
64.024613 99.000000
64.074749 85.000000
64.124886 58.000000
64.175023 133.000000
64.225160 63.000000
64.275296 62.000000
64.325433 93.000000
64.375570 174.000000
64.425706 143.000000
64.475843 144.000000
64.525980 87.000000
64.576117 130.000000
64.626253 145.000000
64.676390 72.000000
64.726527 77.000000
64.776664 39.000000
64.826800 103.000000
64.876937 49.000000
64.927074 134.000000
64.977211 162.000000
65.027347 164.000000
65.077484 82.000000
65.127621 126.000000
65.177758 128.000000
65.227894 70.000000
65.278031 129.000000
65.328168 102.000000
65.378304 127.000000
65.428441 130.000000
65.478578 109.000000
65.528715 95.000000
65.578851 90.000000
65.628988 94.000000
65.679125 39.000000
65.729262 92.000000
65.779398 34.000000
65.829535 111.000000
65.879672 114.000000
65.929809 100.000000
65.979945 84.000000
66.030082 73.000000
66.080219 78.000000
66.130356 79.000000
66.180492 104.000000
66.230629 81.000000
66.280766 162.000000
66.330902 109.000000
66.381039 123.000000
66.431176 111.000000
66.481313 117.000000
66.531449 102.000000
66.581586 119.000000
66.631723 120.000000
66.681860 92.000000
66.731996 134.000000
66.782133 136.000000
66.832270 118.000000
66.882407 42.000000
66.932543 115.000000
66.982680 123.000000
67.032817 105.000000
67.082954 37.000000
67.133090 57.000000
67.183227 69.000000
67.233364 70.000000
67.283500 142.000000
67.333637 125.000000
67.383774 75.000000
67.433911 67.000000
67.484047 112.000000
67.534184 100.000000
67.584321 99.000000
67.634458 106.000000
67.684594 108.000000
67.734731 148.000000
67.784868 109.000000
67.835005 76.000000
67.885141 122.000000
67.935278 111.000000
67.985415 57.000000
68.035552 108.000000
68.085688 132.000000
68.135825 78.000000
68.185962 140.000000
68.236098 82.000000
68.286235 76.000000
68.336372 101.000000
68.386509 118.000000
68.436645 103.000000
68.486782 31.000000
68.536919 8.000000
68.587056 131.000000
68.637192 155.000000
68.687329 74.000000
68.737466 172.000000
68.787603 191.000000
68.837739 195.000000
68.887876 76.000000
68.938013 57.000000
68.988149 77.000000
69.038286 149.000000
69.088423 49.000000
69.138560 136.000000
69.188696 99.000000
69.238833 101.000000
69.288970 106.000000
69.339107 54.000000
69.389243 95.000000
69.439380 120.000000
69.489517 123.000000
69.539654 92.000000
69.589790 96.000000
69.639927 117.000000
69.690064 119.000000
69.740201 108.000000
69.790337 92.000000
69.840474 107.000000
69.890611 96.000000
69.940747 100.000000
69.990884 103.000000
70.041021 108.000000
70.091158 109.000000
70.141294 89.000000
70.191431 56.000000
70.241568 103.000000
70.291705 174.000000
70.341841 151.000000
70.391978 154.000000
70.442115 118.000000
70.492252 119.000000
70.542388 72.000000
70.592525 71.000000
70.642662 119.000000
70.692799 95.000000
70.742935 58.000000
70.793072 130.000000
70.843209 135.000000
70.893345 115.000000
70.943482 129.000000
70.993619 157.000000
71.043756 159.000000
71.093892 79.000000
71.144029 97.000000
71.194166 102.000000
71.244303 44.000000
71.294439 107.000000
71.344576 140.000000
71.394713 121.000000
71.444850 51.000000
71.494986 148.000000
71.545123 95.000000
71.595260 131.000000
71.645397 115.000000
71.695533 126.000000
71.745670 98.000000
71.795807 116.000000
71.845943 132.000000
71.896080 138.000000
71.946217 97.000000
71.996354 55.000000
72.046490 95.000000
72.096627 82.000000
72.146764 83.000000
72.196901 70.000000
72.247037 100.000000
72.297174 99.000000
72.347311 140.000000
72.397448 143.000000
72.447584 142.000000
72.497721 115.000000
72.547858 115.000000
72.597995 108.000000
72.648131 77.000000
72.698268 44.000000
72.748405 141.000000
72.798541 149.000000
72.848678 112.000000
72.898815 31.000000
72.948952 148.000000
72.999088 127.000000
73.049225 110.000000
73.099362 55.000000
73.149499 130.000000
73.199635 113.000000
73.249772 133.000000
73.299909 121.000000
73.350046 112.000000
73.400182 134.000000
73.450319 102.000000
73.500456 88.000000
73.550593 139.000000
73.600729 105.000000
73.650866 91.000000
73.701003 135.000000
73.751139 134.000000
73.801276 132.000000
73.851413 104.000000
73.901550 93.000000
73.951686 87.000000
74.001823 58.000000
74.051960 90.000000
74.102097 123.000000
74.152233 126.000000
74.202370 94.000000
74.252507 94.000000
74.302644 81.000000
74.352780 130.000000
74.402917 125.000000
74.453054 116.000000
74.503191 64.000000
74.553327 57.000000
74.603464 92.000000
74.653601 130.000000
74.703737 86.000000
74.753874 111.000000
74.804011 114.000000
74.854148 94.000000
74.904284 108.000000
74.954421 120.000000
75.004558 104.000000
75.054695 167.000000
75.104831 82.000000
75.154968 151.000000
75.205105 55.000000
75.255242 85.000000
75.305378 82.000000
75.355515 63.000000
75.405652 48.000000
75.455789 141.000000
75.505925 84.000000
75.556062 80.000000
75.606199 59.000000
75.656335 19.000000
75.706472 103.000000
75.756609 117.000000
75.806746 90.000000
75.856882 93.000000
75.907019 90.000000
75.957156 82.000000
76.007293 75.000000
76.057429 123.000000
76.107566 124.000000
76.157703 86.000000
76.207840 77.000000
76.257976 136.000000
76.308113 68.000000
76.358250 119.000000
76.408387 121.000000
76.458523 79.000000
76.508660 86.000000
76.558797 176.000000
76.608933 319.000000
76.659070 705.000000
76.709207 722.000000
76.759344 256.000000
76.809480 185.000000
76.859617 129.000000
76.909754 69.000000
76.959891 123.000000
77.010027 162.000000
77.060164 290.000000
77.110301 749.000000
77.160438 743.000000
77.210574 145.000000
77.260711 124.000000
77.310848 146.000000
77.360985 189.000000
77.411121 186.000000
77.461258 350.000000
77.511395 810.000000
77.561531 697.000000
77.611668 574.000000
77.661805 198.000000
77.711942 129.000000
77.762078 127.000000
77.812215 108.000000
77.862352 13.000000
77.912489 91.000000
77.962625 99.000000
78.012762 92.000000
78.062899 107.000000
78.113036 55.000000
78.163172 138.000000
78.213309 155.000000
78.263446 81.000000
78.313582 94.000000
78.363719 95.000000
78.413856 130.000000
78.463993 133.000000
78.514129 100.000000
78.564266 78.000000
78.614403 117.000000
78.664540 71.000000
78.714676 72.000000
78.764813 168.000000
78.814950 115.000000
78.865087 95.000000
78.915223 176.000000
78.965360 163.000000
79.015497 149.000000
79.065634 57.000000
79.115770 99.000000
79.165907 105.000000
79.216044 79.000000
79.266180 132.000000
79.316317 146.000000
79.366454 147.000000
79.416591 115.000000
79.466727 150.000000
79.516864 109.000000
79.567001 64.000000
79.617138 64.000000
79.667274 99.000000
79.717411 166.000000
79.767548 89.000000
79.817685 95.000000
79.867821 123.000000
79.917958 129.000000
79.968095 55.000000
80.018232 61.000000
80.068368 47.000000
80.118505 64.000000
80.168642 111.000000
80.218778 107.000000
80.268915 117.000000
80.319052 89.000000
80.369189 81.000000
80.419325 90.000000
80.469462 97.000000
80.519599 147.000000
80.569736 148.000000
80.619872 60.000000
80.670009 106.000000
80.720146 107.000000
80.770283 128.000000
80.820419 129.000000
80.870556 74.000000
80.920693 91.000000
80.970830 130.000000
81.020966 134.000000
81.071103 116.000000
81.121240 120.000000
81.171376 63.000000
81.221513 121.000000
81.271650 115.000000
81.321787 82.000000
81.371923 65.000000
81.422060 77.000000
81.472197 80.000000
81.522334 85.000000
81.572470 98.000000
81.622607 93.000000
81.672744 121.000000
81.722881 89.000000
81.773017 159.000000
81.823154 109.000000
81.873291 150.000000
81.923428 132.000000
81.973564 50.000000
82.023701 148.000000
82.073838 209.000000
82.123974 135.000000
82.174111 92.000000
82.224248 98.000000
82.274385 65.000000
82.324521 114.000000
82.374658 103.000000
82.424795 81.000000
82.474932 73.000000
82.525068 67.000000
82.575205 82.000000
82.625342 127.000000
82.675479 132.000000
82.725615 114.000000
82.775752 85.000000
82.825889 138.000000
82.876026 70.000000
82.926162 87.000000
82.976299 114.000000
83.026436 174.000000
83.076572 84.000000
83.126709 182.000000
83.176846 163.000000
83.226983 69.000000
83.277119 129.000000
83.327256 62.000000
83.377393 63.000000
83.427530 109.000000
83.477666 96.000000
83.527803 109.000000
83.577940 115.000000
83.628077 62.000000
83.678213 99.000000
83.728350 111.000000
83.778487 94.000000
83.828624 72.000000
83.878760 77.000000
83.928897 108.000000
83.979034 61.000000
84.029170 116.000000
84.079307 112.000000
84.129444 115.000000
84.179581 30.000000
84.229717 121.000000
84.279854 94.000000
84.329991 27.000000
84.380128 102.000000
84.430264 83.000000
84.480401 139.000000
84.530538 150.000000
84.580675 180.000000
84.630811 186.000000
84.680948 99.000000
84.731085 44.000000
84.781222 96.000000
84.831358 73.000000
84.881495 63.000000
84.931632 153.000000
84.981768 105.000000
85.031905 105.000000
85.082042 61.000000
85.132179 81.000000
85.182315 172.000000
85.232452 195.000000
85.282589 158.000000
85.332726 142.000000
85.382862 166.000000
85.432999 129.000000
85.483136 121.000000
85.533273 89.000000
85.583409 142.000000
85.633546 145.000000
85.683683 130.000000
85.733820 113.000000
85.783956 150.000000
85.834093 111.000000
85.884230 117.000000
85.934366 62.000000
85.984503 120.000000
86.034640 108.000000
86.084777 97.000000
86.134913 141.000000
86.185050 148.000000
86.235187 161.000000
86.285324 87.000000
86.335460 113.000000
86.385597 59.000000
86.435734 128.000000
86.485871 142.000000
86.536007 107.000000
86.586144 102.000000
86.636281 117.000000
86.686418 118.000000
86.736554 90.000000
86.786691 70.000000
86.836828 120.000000
86.886964 126.000000
86.937101 95.000000
86.987238 101.000000
87.037375 124.000000
87.087511 137.000000
87.137648 145.000000
87.187785 82.000000
87.237922 63.000000
87.288058 132.000000
87.338195 100.000000
87.388332 79.000000
87.438469 82.000000
87.488605 132.000000
87.538742 136.000000
87.588879 97.000000
87.639015 174.000000
87.689152 147.000000
87.739289 136.000000
87.789426 124.000000
87.839562 43.000000
87.889699 58.000000
87.939836 89.000000
87.989973 95.000000
88.040109 43.000000
88.090246 75.000000
88.140383 79.000000
88.190520 59.000000
88.240656 108.000000
88.290793 134.000000
88.340930 152.000000
88.391067 140.000000
88.441203 68.000000
88.491340 107.000000
88.541477 58.000000
88.591613 88.000000
88.641750 142.000000
88.691887 87.000000
88.742024 70.000000
88.792160 101.000000
88.842297 81.000000
88.892434 179.000000
88.942571 139.000000
88.992707 120.000000
89.042844 125.000000
89.092981 119.000000
89.143118 117.000000
89.193254 60.000000
89.243391 103.000000
89.293528 108.000000
89.343665 108.000000
89.393801 147.000000
89.443938 150.000000
89.494075 105.000000
89.544211 111.000000
89.594348 82.000000
89.644485 43.000000
89.694622 104.000000
89.744758 99.000000
89.794895 110.000000
89.845032 29.000000
89.895169 72.000000
89.945305 75.000000
89.995442 168.000000
90.045579 97.000000
90.095716 123.000000
90.145852 93.000000
90.195989 79.000000
90.246126 113.000000
90.296263 118.000000
90.346399 119.000000
90.396536 136.000000
90.446673 182.000000
90.496809 158.000000
90.546946 190.000000
90.597083 117.000000
90.647220 144.000000
90.697356 108.000000
90.747493 77.000000
90.797630 144.000000
90.847767 77.000000
90.897903 106.000000
90.948040 79.000000
90.998177 117.000000
91.048314 106.000000
91.098450 120.000000
91.148587 129.000000
91.198724 70.000000
91.248861 55.000000
91.298997 49.000000
91.349134 80.000000
91.399271 93.000000
91.449407 159.000000
91.499544 135.000000
91.549681 140.000000
91.599818 107.000000
91.649954 142.000000
91.700091 118.000000
91.750228 157.000000
91.800365 105.000000
91.850501 107.000000
91.900638 129.000000
91.950775 117.000000
92.000912 127.000000
92.051048 103.000000
92.101185 118.000000
92.151322 160.000000
92.201459 163.000000
92.251595 72.000000
92.301732 129.000000
92.351869 134.000000
92.402005 67.000000
92.452142 127.000000
92.502279 83.000000
92.552416 72.000000
92.602552 139.000000
92.652689 147.000000
92.702826 71.000000
92.752963 85.000000
92.803099 109.000000
92.853236 97.000000
92.903373 97.000000
92.953510 63.000000
93.003646 82.000000
93.053783 42.000000
93.103920 60.000000
93.154057 144.000000
93.204193 96.000000
93.254330 83.000000
93.304467 68.000000
93.354603 64.000000
93.404740 89.000000
93.454877 90.000000
93.505014 80.000000
93.555150 88.000000
93.605287 83.000000
93.655424 76.000000
93.705561 105.000000
93.755697 132.000000
93.805834 145.000000
93.855971 146.000000
93.906108 85.000000
93.956244 129.000000
94.006381 108.000000
94.056518 99.000000
94.106655 156.000000
94.156791 98.000000
94.206928 90.000000
94.257065 72.000000
94.307201 67.000000
94.357338 99.000000
94.407475 107.000000
94.457612 67.000000
94.507748 135.000000
94.557885 94.000000
94.608022 76.000000
94.658159 69.000000
94.708295 111.000000
94.758432 148.000000
94.808569 103.000000
94.858706 77.000000
94.908842 169.000000
94.958979 138.000000
95.009116 119.000000
95.059253 124.000000
95.109389 132.000000
95.159526 32.000000
95.209663 102.000000
95.259799 182.000000
95.309936 177.000000
95.360073 101.000000
95.410210 52.000000
95.460346 148.000000
95.510483 88.000000
95.560620 124.000000
95.610757 100.000000
95.660893 105.000000
95.711030 63.000000
95.761167 109.000000
95.811304 76.000000
95.861440 92.000000
95.911577 132.000000
95.961714 95.000000
96.011851 88.000000
96.061987 116.000000
96.112124 85.000000
96.162261 114.000000
96.212397 84.000000
96.262534 40.000000
96.312671 40.000000
96.362808 144.000000
96.412944 148.000000
96.463081 153.000000
96.513218 122.000000
96.563355 123.000000
96.613491 118.000000
96.663628 117.000000
96.713765 100.000000
96.763902 32.000000
96.814038 33.000000
96.864175 75.000000
96.914312 79.000000
96.964448 119.000000
97.014585 185.000000
97.064722 126.000000
97.114859 102.000000
97.164995 52.000000
97.215132 57.000000
97.265269 139.000000
97.315406 153.000000
97.365542 180.000000
97.415679 182.000000
97.465816 72.000000
97.515953 123.000000
97.566089 130.000000
97.616226 98.000000
97.666363 99.000000
97.716500 139.000000
97.766636 150.000000
97.816773 153.000000
97.866910 159.000000
97.917046 96.000000
97.967183 112.000000
98.017320 128.000000
98.067457 130.000000
98.117593 121.000000
98.167730 126.000000
98.217867 126.000000
98.268004 129.000000
98.318140 130.000000
98.368277 105.000000
98.418414 118.000000
98.468551 66.000000
98.518687 126.000000
98.568824 117.000000
98.618961 120.000000
98.669098 94.000000
98.719234 110.000000
98.769371 150.000000
98.819508 138.000000
98.869644 135.000000
98.919781 122.000000
98.969918 126.000000
99.020055 11.000000
99.070191 69.000000
99.120328 75.000000
99.170465 125.000000
99.220602 126.000000
99.270738 32.000000
99.320875 91.000000
99.371012 126.000000
99.421149 108.000000
99.471285 143.000000
99.521422 70.000000
99.571559 62.000000
99.621696 78.000000
99.671832 127.000000
99.721969 106.000000
99.772106 119.000000
99.822242 118.000000
99.872379 116.000000
99.922516 151.000000
99.972653 136.000000
100.022789 88.000000
100.072926 0.000000
100.123063 79.000000
100.173200 25.000000
100.223336 115.000000
100.273473 189.000000
100.323610 149.000000
100.373747 94.000000
100.423883 91.000000
100.474020 122.000000
100.524157 89.000000
100.574294 97.000000
100.624430 73.000000
100.674567 56.000000
100.724704 73.000000
100.774840 96.000000
100.824977 129.000000
100.875114 70.000000
100.925251 38.000000
100.975387 82.000000
101.025524 124.000000
101.075661 100.000000
101.125798 70.000000
101.175934 42.000000
101.226071 37.000000
101.276208 167.000000
101.326345 114.000000
101.376481 150.000000
101.426618 152.000000
101.476755 119.000000
101.526892 118.000000
101.577028 118.000000
101.627165 82.000000
101.677302 133.000000
101.727438 112.000000
101.777575 111.000000
101.827712 92.000000
101.877849 97.000000
101.927985 141.000000
101.978122 145.000000
102.028259 56.000000
102.078396 214.000000
102.128532 174.000000
102.178669 102.000000
102.228806 83.000000
102.278943 63.000000
102.329079 117.000000
102.379216 117.000000
102.429353 135.000000
102.479490 85.000000
102.529626 166.000000
102.579763 184.000000
102.629900 185.000000
102.680036 141.000000
102.730173 83.000000
102.780310 124.000000
102.830447 150.000000
102.880583 152.000000
102.930720 151.000000
102.980857 163.000000
103.030994 117.000000
103.081130 112.000000
103.131267 103.000000
103.181404 104.000000
103.231541 120.000000
103.281677 211.000000
103.331814 213.000000
103.381951 144.000000
103.432088 125.000000
103.482224 75.000000
103.532361 138.000000
103.582498 68.000000
103.632634 59.000000
103.682771 22.000000
103.732908 156.000000
103.783045 153.000000
103.833181 130.000000
103.883318 156.000000
103.933455 146.000000
103.983592 152.000000
104.033728 120.000000
104.083865 114.000000
104.134002 126.000000
104.184139 106.000000
104.234275 62.000000
104.284412 150.000000
104.334549 158.000000
104.384686 152.000000
104.434822 70.000000
104.484959 58.000000
104.535096 82.000000
104.585232 164.000000
104.635369 127.000000
104.685506 117.000000
104.735643 122.000000
104.785779 59.000000
104.835916 70.000000
104.886053 81.000000
104.936190 79.000000
104.986326 114.000000
105.036463 35.000000
105.086600 98.000000
105.136737 111.000000
105.186873 115.000000
105.237010 118.000000
105.287147 103.000000
105.337284 73.000000
105.387420 144.000000
105.437557 74.000000
105.487694 111.000000
105.537830 99.000000
105.587967 137.000000
105.638104 142.000000
105.688241 157.000000
105.738377 122.000000
105.788514 100.000000
105.838651 139.000000
105.888788 142.000000
105.938924 105.000000
105.989061 113.000000
106.039198 142.000000
106.089335 154.000000
106.139471 92.000000
106.189608 125.000000
106.239745 109.000000
106.289881 111.000000
106.340018 144.000000
106.390155 173.000000
106.440292 178.000000
106.490428 163.000000
106.540565 112.000000
106.590702 134.000000
106.640839 154.000000
106.690975 71.000000
106.741112 88.000000
106.791249 90.000000
106.841386 91.000000
106.891522 120.000000
106.941659 163.000000
106.991796 167.000000
107.041933 136.000000
107.092069 150.000000
107.142206 154.000000
107.192343 109.000000
107.242479 50.000000
107.292616 112.000000
107.342753 64.000000
107.392890 66.000000
107.443026 158.000000
107.493163 125.000000
107.543300 90.000000
107.593437 137.000000
107.643573 124.000000
107.693710 103.000000
107.743847 142.000000
107.793984 79.000000
107.844120 138.000000
107.894257 161.000000
107.944394 143.000000
107.994531 162.000000
108.044667 110.000000
108.094804 128.000000
108.144941 130.000000
108.195077 135.000000
108.245214 86.000000
108.295351 84.000000
108.345488 83.000000
108.395624 121.000000
108.445761 124.000000
108.495898 154.000000
108.546035 163.000000
108.596171 83.000000
108.646308 176.000000
108.696445 169.000000
108.746582 118.000000
108.796718 186.000000
108.846855 136.000000
108.896992 149.000000
108.947129 150.000000
108.997265 53.000000
109.047402 121.000000
109.097539 182.000000
109.147675 107.000000
109.197812 113.000000
109.247949 176.000000
109.298086 176.000000
109.348222 97.000000
109.398359 117.000000
109.448496 71.000000
109.498633 127.000000
109.548769 168.000000
109.598906 114.000000
109.649043 115.000000
109.699180 64.000000
109.749316 124.000000
109.799453 125.000000
109.849590 184.000000
109.899727 188.000000
109.949863 92.000000
110.000000 80.000000
110.050137 67.000000
110.100273 78.000000
110.150410 89.000000
110.200547 109.000000
110.250684 71.000000
110.300820 111.000000
110.350957 99.000000
110.401094 116.000000
110.451231 130.000000
110.501367 131.000000
110.551504 51.000000
110.601641 130.000000
110.651778 124.000000
110.701914 189.000000
110.752051 127.000000
110.802188 135.000000
110.852325 170.000000
110.902461 179.000000
110.952598 105.000000
111.002735 93.000000
111.052871 73.000000
111.103008 56.000000
111.153145 93.000000
111.203282 97.000000
111.253418 55.000000
111.303555 103.000000
111.353692 148.000000
111.403829 179.000000
111.453965 167.000000
111.504102 173.000000
111.554239 166.000000
111.604376 117.000000
111.654512 77.000000
111.704649 120.000000
111.754786 143.000000
111.804923 103.000000
111.855059 102.000000
111.905196 73.000000
111.955333 81.000000
112.005469 105.000000
112.055606 130.000000
112.105743 139.000000
112.155880 154.000000
112.206016 188.000000
112.256153 139.000000
112.306290 139.000000
112.356427 143.000000
112.406563 114.000000
112.456700 117.000000
112.506837 164.000000
112.556974 168.000000
112.607110 120.000000
112.657247 64.000000
112.707384 83.000000
112.757521 114.000000
112.807657 88.000000
112.857794 158.000000
112.907931 161.000000
112.958067 151.000000
113.008204 96.000000
113.058341 179.000000
113.108478 146.000000
113.158614 127.000000
113.208751 171.000000
113.258888 108.000000
113.309025 156.000000
113.359161 145.000000
113.409298 113.000000
113.459435 125.000000
113.509572 93.000000
113.559708 92.000000
113.609845 161.000000
113.659982 147.000000
113.710119 154.000000
113.760255 118.000000
113.810392 111.000000
113.860529 104.000000
113.910665 124.000000
113.960802 143.000000
114.010939 84.000000
114.061076 64.000000
114.111212 38.000000
114.161349 105.000000
114.211486 144.000000
114.261623 107.000000
114.311759 96.000000
114.361896 88.000000
114.412033 88.000000
114.462170 117.000000
114.512306 134.000000
114.562443 86.000000
114.612580 122.000000
114.662716 124.000000
114.712853 190.000000
114.762990 168.000000
114.813127 179.000000
114.863263 111.000000
114.913400 59.000000
114.963537 150.000000
115.013674 141.000000
115.063810 164.000000
115.113947 165.000000
115.164084 62.000000
115.214221 93.000000
115.264357 131.000000
115.314494 86.000000
115.364631 71.000000
115.414768 58.000000
115.464904 25.000000
115.515041 76.000000
115.565178 140.000000
115.615314 189.000000
115.665451 172.000000
115.715588 72.000000
115.765725 0.000000
115.815861 127.000000
115.865998 86.000000
115.916135 90.000000
115.966272 101.000000
116.016408 93.000000
116.066545 163.000000
116.116682 139.000000
116.166819 147.000000
116.216955 128.000000
116.267092 135.000000
116.317229 134.000000
116.367366 136.000000
116.417502 110.000000
116.467639 125.000000
116.517776 120.000000
116.567912 123.000000
116.618049 124.000000
116.668186 88.000000
116.718323 64.000000
116.768459 90.000000
116.818596 144.000000
116.868733 143.000000
116.918870 145.000000
116.969006 133.000000
117.019143 79.000000
117.069280 112.000000
117.119417 157.000000
117.169553 161.000000
117.219690 115.000000
117.269827 111.000000
117.319964 137.000000
117.370100 125.000000
117.420237 94.000000
117.470374 116.000000
117.520510 117.000000
117.570647 118.000000
117.620784 109.000000
117.670921 156.000000
117.721057 160.000000
117.771194 142.000000
117.821331 103.000000
117.871468 66.000000
117.921604 74.000000
117.971741 75.000000
118.021878 167.000000
118.072015 163.000000
118.122151 124.000000
118.172288 132.000000
118.222425 124.000000
118.272562 127.000000
118.322698 138.000000
118.372835 150.000000
118.422972 156.000000
118.473108 170.000000
118.523245 171.000000
118.573382 172.000000
118.623519 67.000000
118.673655 118.000000
118.723792 123.000000
118.773929 35.000000
118.824066 101.000000
118.874202 64.000000
118.924339 207.000000
118.974476 247.000000
119.024613 281.000000
119.074749 1575.000000
119.124886 1608.000000
119.175023 798.000000
119.225160 188.000000
119.275296 147.000000
119.325433 71.000000
119.375570 127.000000
119.425706 160.000000
119.475843 190.000000
119.525980 135.000000
119.576117 63.000000
119.626253 123.000000
119.676390 93.000000
119.726527 102.000000
119.776664 111.000000
119.826800 80.000000
119.876937 89.000000
119.927074 118.000000
119.977211 40.000000
120.027347 153.000000
120.077484 133.000000
120.127621 142.000000
120.177758 143.000000
120.227894 151.000000
120.278031 132.000000
120.328168 133.000000
120.378304 97.000000
120.428441 90.000000
120.478578 117.000000
120.528715 155.000000
120.578851 129.000000
120.628988 173.000000
120.679125 92.000000
120.729262 135.000000
120.779398 130.000000
120.829535 157.000000
120.879672 114.000000
120.929809 81.000000
120.979945 45.000000
121.030082 124.000000
121.080219 125.000000
121.130356 113.000000
121.180492 96.000000
121.230629 89.000000
121.280766 105.000000
121.330902 172.000000
121.381039 181.000000
121.431176 137.000000
121.481313 134.000000
121.531449 93.000000
121.581586 129.000000
121.631723 142.000000
121.681860 138.000000
121.731996 148.000000
121.782133 151.000000
121.832270 151.000000
121.882407 79.000000
121.932543 145.000000
121.982680 156.000000
122.032817 135.000000
122.082954 72.000000
122.133090 70.000000
122.183227 70.000000
122.233364 116.000000
122.283500 125.000000
122.333637 136.000000
122.383774 137.000000
122.433911 76.000000
122.484047 100.000000
122.534184 85.000000
122.584321 142.000000
122.634458 134.000000
122.684594 128.000000
122.734731 131.000000
122.784868 123.000000
122.835005 71.000000
122.885141 15.000000
122.935278 99.000000
122.985415 141.000000
123.035552 123.000000
123.085688 111.000000
123.135825 110.000000
123.185962 78.000000
123.236098 117.000000
123.286235 127.000000
123.336372 112.000000
123.386509 130.000000
123.436645 106.000000
123.486782 145.000000
123.536919 123.000000
123.587056 128.000000
123.637192 177.000000
123.687329 96.000000
123.737466 96.000000
123.787603 106.000000
123.837739 105.000000
123.887876 55.000000
123.938013 67.000000
123.988149 57.000000
124.038286 97.000000
124.088423 155.000000
124.138560 35.000000
124.188696 112.000000
124.238833 101.000000
124.288970 147.000000
124.339107 94.000000
124.389243 64.000000
124.439380 69.000000
124.489517 122.000000
124.539654 100.000000
124.589790 114.000000
124.639927 130.000000
124.690064 112.000000
124.740201 76.000000
124.790337 118.000000
124.840474 121.000000
124.890611 146.000000
124.940747 150.000000
124.990884 89.000000
125.041021 133.000000
125.091158 73.000000
125.141294 120.000000
125.191431 105.000000
125.241568 135.000000
125.291705 116.000000
125.341841 83.000000
125.391978 109.000000
125.442115 109.000000
125.492252 151.000000
125.542388 92.000000
125.592525 76.000000
125.642662 68.000000
125.692799 70.000000
125.742935 91.000000
125.793072 139.000000
125.843209 127.000000
125.893345 63.000000
125.943482 115.000000
125.993619 154.000000
126.043756 162.000000
126.093892 121.000000
126.144029 121.000000
126.194166 39.000000
126.244303 92.000000
126.294439 103.000000
126.344576 108.000000
126.394713 98.000000
126.444850 118.000000
126.494986 120.000000
126.545123 92.000000
126.595260 97.000000
126.645397 126.000000
126.695533 127.000000
126.745670 83.000000
126.795807 112.000000
126.845943 135.000000
126.896080 131.000000
126.946217 105.000000
126.996354 74.000000
127.046490 112.000000
127.096627 87.000000
127.146764 70.000000
127.196901 67.000000
127.247037 70.000000
127.297174 25.000000
127.347311 92.000000
127.397448 96.000000
127.447584 114.000000
127.497721 134.000000
127.547858 96.000000
127.597995 205.000000
127.648131 143.000000
127.698268 103.000000
127.748405 136.000000
127.798541 111.000000
127.848678 44.000000
127.898815 121.000000
127.948952 113.000000
127.999088 106.000000
128.049225 123.000000
128.099362 146.000000
128.149499 186.000000
128.199635 191.000000
128.249772 124.000000
128.299909 129.000000
128.350046 46.000000
128.400182 0.000000
128.450319 62.000000
128.500456 150.000000
128.550593 206.000000
128.600729 147.000000
128.650866 113.000000
128.701003 115.000000
128.751139 157.000000
128.801276 161.000000
128.851413 73.000000
128.901550 92.000000
128.951686 0.000000
129.001823 98.000000
129.051960 99.000000
129.102097 99.000000
129.152233 57.000000
129.202370 40.000000
129.252507 76.000000
129.302644 119.000000
129.352780 97.000000
129.402917 74.000000
129.453054 77.000000
129.503191 78.000000
129.553327 83.000000
129.603464 143.000000
129.653601 159.000000
129.703737 99.000000
129.753874 68.000000
129.804011 94.000000
129.854148 99.000000
129.904284 66.000000
129.954421 96.000000
130.004558 55.000000
130.054695 141.000000
130.104831 112.000000
130.154968 126.000000
130.205105 126.000000
130.255242 111.000000
130.305378 75.000000
130.355515 92.000000
130.405652 141.000000
130.455789 135.000000
130.505925 111.000000
130.556062 99.000000
130.606199 88.000000
130.656335 90.000000
130.706472 135.000000
130.756609 129.000000
130.806746 120.000000
130.856882 35.000000
130.907019 159.000000
130.957156 141.000000
131.007293 120.000000
131.057429 108.000000
131.107566 59.000000
131.157703 93.000000
131.207840 156.000000
131.257976 127.000000
131.308113 154.000000
131.358250 159.000000
131.408387 106.000000
131.458523 107.000000
131.508660 138.000000
131.558797 135.000000
131.608933 147.000000
131.659070 125.000000
131.709207 146.000000
131.759344 148.000000
131.809480 106.000000
131.859617 115.000000
131.909754 52.000000
131.959891 61.000000
132.010027 99.000000
132.060164 88.000000
132.110301 108.000000
132.160438 88.000000
132.210574 83.000000
132.260711 209.000000
132.310848 168.000000
132.360985 110.000000
132.411121 94.000000
132.461258 94.000000
132.511395 65.000000
132.561531 113.000000
132.611668 139.000000
132.661805 127.000000
132.711942 32.000000
132.762078 50.000000
132.812215 73.000000
132.862352 58.000000
132.912489 62.000000
132.962625 65.000000
133.012762 67.000000
133.062899 65.000000
133.113036 95.000000
133.163172 135.000000
133.213309 148.000000
133.263446 82.000000
133.313582 54.000000
133.363719 140.000000
133.413856 88.000000
133.463993 64.000000
133.514129 82.000000
133.564266 111.000000
133.614403 104.000000
133.664540 141.000000
133.714676 140.000000
133.764813 92.000000
133.814950 137.000000
133.865087 75.000000
133.915223 122.000000
133.965360 94.000000
134.015497 134.000000
134.065634 186.000000
134.115770 264.000000
134.165907 269.000000
134.216044 2044.000000
134.266180 2153.000000
134.316317 190.000000
134.366454 151.000000
134.416591 112.000000
134.466727 91.000000
134.516864 94.000000
134.567001 147.000000
134.617138 124.000000
134.667274 104.000000
134.717411 87.000000
134.767548 108.000000
134.817685 96.000000
134.867821 105.000000
134.917958 124.000000
134.968095 55.000000
135.018232 78.000000
135.068368 139.000000
135.118505 146.000000
135.168642 123.000000
135.218778 97.000000
135.268915 95.000000
135.319052 115.000000
135.369189 113.000000
135.419325 119.000000
135.469462 121.000000
135.519599 26.000000
135.569736 109.000000
135.619872 123.000000
135.670009 114.000000
135.720146 100.000000
135.770283 83.000000
135.820419 104.000000
135.870556 119.000000
135.920693 121.000000
135.970830 148.000000
136.020966 150.000000
136.071103 47.000000
136.121240 107.000000
136.171376 107.000000
136.221513 109.000000
136.271650 36.000000
136.321787 39.000000
136.371923 39.000000
136.422060 87.000000
136.472197 88.000000
136.522334 98.000000
136.572470 133.000000
136.622607 116.000000
136.672744 98.000000
136.722881 68.000000
136.773017 175.000000
136.823154 180.000000
136.873291 49.000000
136.923428 102.000000
136.973564 182.000000
137.023701 189.000000
137.073838 120.000000
137.123974 167.000000
137.174111 103.000000
137.224248 109.000000
137.274385 134.000000
137.324521 139.000000
137.374658 108.000000
137.424795 132.000000
137.474932 135.000000
137.525068 112.000000
137.575205 94.000000
137.625342 81.000000
137.675479 84.000000
137.725615 52.000000
137.775752 100.000000
137.825889 145.000000
137.876026 115.000000
137.926162 119.000000
137.976299 125.000000
138.026436 127.000000
138.076572 97.000000
138.126709 121.000000
138.176846 73.000000
138.226983 84.000000
138.277119 80.000000
138.327256 111.000000
138.377393 86.000000
138.427530 132.000000
138.477666 196.000000
138.527803 71.000000
138.577940 66.000000
138.628077 77.000000
138.678213 93.000000
138.728350 62.000000
138.778487 156.000000
138.828624 148.000000
138.878760 140.000000
138.928897 156.000000
138.979034 159.000000
139.029170 138.000000
139.079307 131.000000
139.129444 145.000000
139.179581 132.000000
139.229717 139.000000
139.279854 105.000000
139.329991 111.000000
139.380128 103.000000
139.430264 106.000000
139.480401 141.000000
139.530538 180.000000
139.580675 187.000000
139.630811 114.000000
139.680948 125.000000
139.731085 116.000000
139.781222 71.000000
139.831358 126.000000
139.881495 117.000000
139.931632 70.000000
139.981768 84.000000
140.031905 100.000000
140.082042 120.000000
140.132179 59.000000
140.182315 53.000000
140.232452 88.000000
140.282589 91.000000
140.332726 87.000000
140.382862 72.000000
140.432999 114.000000
140.483136 118.000000
140.533273 168.000000
140.583409 142.000000
140.633546 144.000000
140.683683 135.000000
140.733820 51.000000
140.783956 99.000000
140.834093 82.000000
140.884230 109.000000
140.934366 70.000000
140.984503 110.000000
141.034640 114.000000
141.084777 114.000000
141.134913 96.000000
141.185050 123.000000
141.235187 64.000000
141.285324 28.000000
141.335460 99.000000
141.385597 108.000000
141.435734 112.000000
141.485871 87.000000
141.536007 68.000000
141.586144 120.000000
141.636281 98.000000
141.686418 99.000000
141.736554 91.000000
141.786691 137.000000
141.836828 47.000000
141.886964 87.000000
141.937101 137.000000
141.987238 68.000000
142.037375 119.000000
142.087511 70.000000
142.137648 70.000000
142.187785 47.000000
142.237922 123.000000
142.288058 148.000000
142.338195 154.000000
142.388332 54.000000
142.438469 120.000000
142.488605 125.000000
142.538742 91.000000
142.588879 164.000000
142.639015 42.000000
142.689152 93.000000
142.739289 93.000000
142.789426 135.000000
142.839562 97.000000
142.889699 164.000000
142.939836 74.000000
142.989973 96.000000
143.040109 105.000000
143.090246 106.000000
143.140383 134.000000
143.190520 129.000000
143.240656 123.000000
143.290793 124.000000
143.340930 128.000000
143.391067 82.000000
143.441203 86.000000
143.491340 91.000000
143.541477 158.000000
143.591613 85.000000
143.641750 130.000000
143.691887 84.000000
143.742024 73.000000
143.792160 124.000000
143.842297 127.000000
143.892434 137.000000
143.942571 147.000000
143.992707 86.000000
144.042844 70.000000
144.092981 93.000000
144.143118 103.000000
144.193254 113.000000
144.243391 118.000000
144.293528 3.000000
144.343665 118.000000
144.393801 88.000000
144.443938 83.000000
144.494075 149.000000
144.544211 63.000000
144.594348 54.000000
144.644485 49.000000
144.694622 108.000000
144.744758 94.000000
144.794895 103.000000
144.845032 88.000000
144.895169 90.000000
144.945305 91.000000
144.995442 156.000000
145.045579 69.000000
145.095716 72.000000
145.145852 28.000000
145.195989 176.000000
145.246126 172.000000
145.296263 141.000000
145.346399 165.000000
145.396536 108.000000
145.446673 78.000000
145.496809 106.000000
145.546946 107.000000
145.597083 106.000000
145.647220 85.000000
145.697356 36.000000
145.747493 49.000000
145.797630 97.000000
145.847767 132.000000
145.897903 123.000000
145.948040 100.000000
145.998177 162.000000
146.048314 97.000000
146.098450 100.000000
146.148587 67.000000
146.198724 110.000000
146.248861 114.000000
146.298997 114.000000
146.349134 109.000000
146.399271 102.000000
146.449407 116.000000
146.499544 104.000000
146.549681 108.000000
146.599818 112.000000
146.649954 103.000000
146.700091 91.000000
146.750228 99.000000
146.800365 136.000000
146.850501 80.000000
146.900638 130.000000
146.950775 133.000000
147.000912 124.000000
147.051048 16.000000
147.101185 123.000000
147.151322 117.000000
147.201459 120.000000
147.251595 146.000000
147.301732 125.000000
147.351869 103.000000
147.402005 91.000000
147.452142 87.000000
147.502279 168.000000
147.552416 146.000000
147.602552 162.000000
147.652689 165.000000
147.702826 103.000000
147.752963 93.000000
147.803099 103.000000
147.853236 85.000000
147.903373 131.000000
147.953510 58.000000
148.003646 70.000000
148.053783 120.000000
148.103920 102.000000
148.154057 101.000000
148.204193 103.000000
148.254330 130.000000
148.304467 131.000000
148.354603 100.000000
148.404740 54.000000
148.454877 117.000000
148.505014 135.000000
148.555150 92.000000
148.605287 129.000000
148.655424 135.000000
148.705561 124.000000
148.755697 132.000000
148.805834 137.000000
148.855971 83.000000
148.906108 63.000000
148.956244 67.000000
149.006381 119.000000
149.056518 63.000000
149.106655 104.000000
149.156791 105.000000
149.206928 112.000000
149.257065 104.000000
149.307201 118.000000
149.357338 110.000000
149.407475 117.000000
149.457612 106.000000
149.507748 25.000000
149.557885 112.000000
149.608022 141.000000
149.658159 102.000000
149.708295 106.000000
149.758432 121.000000
149.808569 85.000000
149.858706 106.000000
149.908842 112.000000
149.958979 152.000000
150.009116 156.000000
150.059253 110.000000
150.109389 111.000000
150.159526 115.000000
150.209663 103.000000
150.259799 120.000000
150.309936 96.000000
150.360073 73.000000
150.410210 116.000000
150.460346 121.000000
150.510483 97.000000
150.560620 150.000000
150.610757 26.000000
150.660893 97.000000
150.711030 137.000000
150.761167 93.000000
150.811304 114.000000
150.861440 97.000000
150.911577 86.000000
150.961714 80.000000
151.011851 88.000000
151.061987 68.000000
151.112124 184.000000
151.162261 173.000000
151.212397 160.000000
151.262534 103.000000
151.312671 136.000000
151.362808 130.000000
151.412944 54.000000
151.463081 74.000000
151.513218 76.000000
151.563355 90.000000
151.613491 158.000000
151.663628 94.000000
151.713765 40.000000
151.763902 115.000000
151.814038 64.000000
151.864175 114.000000
151.914312 154.000000
151.964448 150.000000
152.014585 103.000000
152.064722 118.000000
152.114859 87.000000
152.164995 46.000000
152.215132 171.000000
152.265269 91.000000
152.315406 115.000000
152.365542 149.000000
152.415679 129.000000
152.465816 92.000000
152.515953 63.000000
152.566089 137.000000
152.616226 142.000000
152.666363 85.000000
152.716500 123.000000
152.766636 117.000000
152.816773 4.000000
152.866910 79.000000
152.917046 96.000000
152.967183 82.000000
153.017320 170.000000
153.067457 151.000000
153.117593 134.000000
153.167730 150.000000
153.217867 159.000000
153.268004 130.000000
153.318140 167.000000
153.368277 93.000000
153.418414 125.000000
153.468551 74.000000
153.518687 76.000000
153.568824 109.000000
153.618961 120.000000
153.669098 121.000000
153.719234 128.000000
153.769371 130.000000
153.819508 103.000000
153.869644 122.000000
153.919781 51.000000
153.969918 56.000000
154.020055 123.000000
154.070191 102.000000
154.120328 93.000000
154.170465 76.000000
154.220602 86.000000
154.270738 94.000000
154.320875 111.000000
154.371012 100.000000
154.421149 27.000000
154.471285 55.000000
154.521422 57.000000
154.571559 126.000000
154.621696 145.000000
154.671832 90.000000
154.721969 102.000000
154.772106 118.000000
154.822242 97.000000
154.872379 67.000000
154.922516 104.000000
154.972653 114.000000
155.022789 79.000000
155.072926 113.000000
155.123063 115.000000
155.173200 114.000000
155.223336 71.000000
155.273473 46.000000
155.323610 145.000000
155.373747 150.000000
155.423883 100.000000
155.474020 106.000000
155.524157 91.000000
155.574294 75.000000
155.624430 136.000000
155.674567 126.000000
155.724704 82.000000
155.774840 87.000000
155.824977 127.000000
155.875114 130.000000
155.925251 126.000000
155.975387 127.000000
156.025524 125.000000
156.075661 88.000000
156.125798 70.000000
156.175934 72.000000
156.226071 105.000000
156.276208 104.000000
156.326345 131.000000
156.376481 70.000000
156.426618 158.000000
156.476755 108.000000
156.526892 126.000000
156.577028 144.000000
156.627165 147.000000
156.677302 86.000000
156.727438 127.000000
156.777575 123.000000
156.827712 133.000000
156.877849 138.000000
156.927985 142.000000
156.978122 161.000000
157.028259 102.000000
157.078396 132.000000
157.128532 132.000000
157.178669 135.000000
157.228806 64.000000
157.278943 69.000000
157.329079 60.000000
157.379216 76.000000
157.429353 139.000000
157.479490 133.000000
157.529626 127.000000
157.579763 61.000000
157.629900 76.000000
157.680036 98.000000
157.730173 129.000000
157.780310 139.000000
157.830447 141.000000
157.880583 170.000000
157.930720 114.000000
157.980857 132.000000
158.030994 61.000000
158.081130 108.000000
158.131267 141.000000
158.181404 73.000000
158.231541 142.000000
158.281677 105.000000
158.331814 131.000000
158.381951 134.000000
158.432088 100.000000
158.482224 96.000000
158.532361 79.000000
158.582498 34.000000
158.632634 103.000000
158.682771 106.000000
158.732908 84.000000
158.783045 109.000000
158.833181 51.000000
158.883318 82.000000
158.933455 88.000000
158.983592 38.000000
159.033728 102.000000
159.083865 81.000000
159.134002 70.000000
159.184139 87.000000
159.234275 127.000000
159.284412 72.000000
159.334549 101.000000
159.384686 88.000000
159.434822 82.000000
159.484959 109.000000
159.535096 113.000000
159.585232 162.000000
159.635369 171.000000
159.685506 115.000000
159.735643 53.000000
159.785779 95.000000
159.835916 100.000000
159.886053 88.000000
159.936190 78.000000
159.986326 102.000000
160.036463 97.000000
160.086600 120.000000
160.136737 103.000000
160.186873 48.000000
160.237010 109.000000
160.287147 114.000000
160.337284 87.000000
160.387420 123.000000
160.437557 74.000000
160.487694 109.000000
160.537830 113.000000
160.587967 117.000000
160.638104 66.000000
160.688241 72.000000
160.738377 73.000000
160.788514 63.000000
160.838651 88.000000
160.888788 129.000000
160.938924 135.000000
160.989061 103.000000
161.039198 77.000000
161.089335 82.000000
161.139471 115.000000
161.189608 99.000000
161.239745 129.000000
161.289881 151.000000
161.340018 167.000000
161.390155 168.000000
161.440292 62.000000
161.490428 136.000000
161.540565 141.000000
161.590702 64.000000
161.640839 83.000000
161.690975 121.000000
161.741112 133.000000
161.791249 121.000000
161.841386 112.000000
161.891522 93.000000
161.941659 135.000000
161.991796 120.000000
162.041933 134.000000
162.092069 112.000000
162.142206 65.000000
162.192343 91.000000
162.242479 120.000000
162.292616 95.000000
162.342753 142.000000
162.392890 95.000000
162.443026 81.000000
162.493163 99.000000
162.543300 85.000000
162.593437 109.000000
162.643573 103.000000
162.693710 69.000000
162.743847 89.000000
162.793984 81.000000
162.844120 111.000000
162.894257 134.000000
162.944394 161.000000
162.994531 133.000000
163.044667 195.000000
163.094804 68.000000
163.144941 105.000000
163.195077 103.000000
163.245214 75.000000
163.295351 141.000000
163.345488 132.000000
163.395624 138.000000
163.445761 99.000000
163.495898 70.000000
163.546035 68.000000
163.596171 88.000000
163.646308 68.000000
163.696445 70.000000
163.746582 65.000000
163.796718 45.000000
163.846855 61.000000
163.896992 47.000000
163.947129 57.000000
163.997265 49.000000
164.047402 51.000000
164.097539 71.000000
164.147675 112.000000
164.197812 118.000000
164.247949 101.000000
164.298086 165.000000
164.348222 97.000000
164.398359 92.000000
164.448496 92.000000
164.498633 130.000000
164.548769 37.000000
164.598906 32.000000
164.649043 62.000000
164.699180 102.000000
164.749316 91.000000
164.799453 111.000000
164.849590 108.000000
164.899727 111.000000
164.949863 113.000000
165.000000 105.000000
165.050137 91.000000
165.100273 115.000000
165.150410 89.000000
165.200547 114.000000
165.250684 175.000000
165.300820 164.000000
165.350957 106.000000
165.401094 87.000000
165.451231 56.000000
165.501367 164.000000
165.551504 126.000000
165.601641 49.000000
165.651778 57.000000
165.701914 66.000000
165.752051 156.000000
165.802188 114.000000
165.852325 168.000000
165.902461 130.000000
165.952598 82.000000
166.002735 27.000000
166.052871 92.000000
166.103008 98.000000
166.153145 91.000000
166.203282 126.000000
166.253418 114.000000
166.303555 101.000000
166.353692 59.000000
166.403829 60.000000
166.453965 128.000000
166.504102 129.000000
166.554239 92.000000
166.604376 111.000000
166.654512 117.000000
166.704649 149.000000
166.754786 78.000000
166.804923 99.000000
166.855059 102.000000
166.905196 119.000000
166.955333 135.000000
167.005469 120.000000
167.055606 133.000000
167.105743 83.000000
167.155880 105.000000
167.206016 56.000000
167.256153 80.000000
167.306290 84.000000
167.356427 106.000000
167.406563 109.000000
167.456700 85.000000
167.506837 117.000000
167.556974 83.000000
167.607110 96.000000
167.657247 60.000000
167.707384 126.000000
167.757521 85.000000
167.807657 123.000000
167.857794 105.000000
167.907931 95.000000
167.958067 107.000000
168.008204 120.000000
168.058341 121.000000
168.108478 139.000000
168.158614 113.000000
168.208751 33.000000
168.258888 74.000000
168.309025 52.000000
168.359161 93.000000
168.409298 88.000000
168.459435 20.000000
168.509572 69.000000
168.559708 70.000000
168.609845 67.000000
168.659982 113.000000
168.710119 117.000000
168.760255 97.000000
168.810392 135.000000
168.860529 88.000000
168.910665 106.000000
168.960802 98.000000
169.010939 101.000000
169.061076 102.000000
169.111212 71.000000
169.161349 84.000000
169.211486 85.000000
169.261623 93.000000
169.311759 80.000000
169.361896 154.000000
169.412033 129.000000
169.462170 65.000000
169.512306 156.000000
169.562443 73.000000
169.612580 70.000000
169.662716 102.000000
169.712853 141.000000
169.762990 168.000000
169.813127 35.000000
169.863263 78.000000
169.913400 168.000000
169.963537 122.000000
170.013674 128.000000
170.063810 107.000000
170.113947 147.000000
170.164084 150.000000
170.214221 78.000000
170.264357 116.000000
170.314494 59.000000
170.364631 73.000000
170.414768 97.000000
170.464904 126.000000
170.515041 129.000000
170.565178 155.000000
170.615314 36.000000
170.665451 48.000000
170.715588 103.000000
170.765725 110.000000
170.815861 136.000000
170.865998 136.000000
170.916135 133.000000
170.966272 136.000000
171.016408 135.000000
171.066545 102.000000
171.116682 61.000000
171.166819 77.000000
171.216955 37.000000
171.267092 58.000000
171.317229 90.000000
171.367366 109.000000
171.417502 143.000000
171.467639 96.000000
171.517776 157.000000
171.567912 162.000000
171.618049 104.000000
171.668186 54.000000
171.718323 121.000000
171.768459 106.000000
171.818596 114.000000
171.868733 84.000000
171.918870 103.000000
171.969006 136.000000
172.019143 71.000000
172.069280 147.000000
172.119417 66.000000
172.169553 79.000000
172.219690 82.000000
172.269827 59.000000
172.319964 14.000000
172.370100 170.000000
172.420237 112.000000
172.470374 108.000000
172.520510 93.000000
172.570647 61.000000
172.620784 154.000000
172.670921 159.000000
172.721057 87.000000
172.771194 111.000000
172.821331 80.000000
172.871468 96.000000
172.921604 103.000000
172.971741 104.000000
173.021878 105.000000
173.072015 156.000000
173.122151 22.000000
173.172288 80.000000
173.222425 113.000000
173.272562 147.000000
173.322698 74.000000
173.372835 70.000000
173.422972 60.000000
173.473108 130.000000
173.523245 111.000000
173.573382 58.000000
173.623519 20.000000
173.673655 24.000000
173.723792 71.000000
173.773929 87.000000
173.824066 143.000000
173.874202 148.000000
173.924339 83.000000
173.974476 139.000000
174.024613 145.000000
174.074749 90.000000
174.124886 105.000000
174.175023 134.000000
174.225160 122.000000
174.275296 127.000000
174.325433 108.000000
174.375570 110.000000
174.425706 114.000000
174.475843 68.000000
174.525980 28.000000
174.576117 111.000000
174.626253 115.000000
174.676390 85.000000
174.726527 101.000000
174.776664 45.000000
174.826800 80.000000
174.876937 90.000000
174.927074 136.000000
174.977211 84.000000
175.027347 133.000000
175.077484 146.000000
175.127621 147.000000
175.177758 113.000000
175.227894 108.000000
175.278031 117.000000
175.328168 126.000000
175.378304 127.000000
175.428441 117.000000
175.478578 114.000000
175.528715 117.000000
175.578851 139.000000
175.628988 141.000000
175.679125 110.000000
175.729262 111.000000
175.779398 69.000000
175.829535 74.000000
175.879672 95.000000
175.929809 103.000000
175.979945 51.000000
176.030082 112.000000
176.080219 162.000000
176.130356 89.000000
176.180492 104.000000
176.230629 63.000000
176.280766 124.000000
176.330902 92.000000
176.381039 54.000000
176.431176 53.000000
176.481313 79.000000
176.531449 94.000000
176.581586 126.000000
176.631723 95.000000
176.681860 91.000000
176.731996 156.000000
176.782133 99.000000
176.832270 142.000000
176.882407 123.000000
176.932543 177.000000
176.982680 105.000000
177.032817 99.000000
177.082954 91.000000
177.133090 133.000000
177.183227 134.000000
177.233364 109.000000
177.283500 111.000000
177.333637 146.000000
177.383774 106.000000
177.433911 115.000000
177.484047 85.000000
177.534184 80.000000
177.584321 75.000000
177.634458 112.000000
177.684594 83.000000
177.734731 121.000000
177.784868 99.000000
177.835005 111.000000
177.885141 132.000000
177.935278 78.000000
177.985415 82.000000
178.035552 115.000000
178.085688 63.000000
178.135825 60.000000
178.185962 156.000000
178.236098 136.000000
178.286235 107.000000
178.336372 116.000000
178.386509 117.000000
178.436645 75.000000
178.486782 63.000000
178.536919 57.000000
178.587056 108.000000
178.637192 54.000000
178.687329 60.000000
178.737466 81.000000
178.787603 77.000000
178.837739 121.000000
178.887876 145.000000
178.938013 148.000000
178.988149 118.000000
179.038286 139.000000
179.088423 86.000000
179.138560 113.000000
179.188696 79.000000
179.238833 174.000000
179.288970 177.000000
179.339107 124.000000
179.389243 120.000000
179.439380 111.000000
179.489517 135.000000
179.539654 171.000000
179.589790 176.000000
179.639927 123.000000
179.690064 86.000000
179.740201 66.000000
179.790337 92.000000
179.840474 97.000000
179.890611 83.000000
179.940747 81.000000
179.990884 56.000000
180.041021 189.000000
180.091158 74.000000
180.141294 66.000000
180.191431 68.000000
180.241568 74.000000
180.291705 46.000000
180.341841 82.000000
180.391978 121.000000
180.442115 117.000000
180.492252 117.000000
180.542388 136.000000
180.592525 138.000000
180.642662 78.000000
180.692799 100.000000
180.742935 105.000000
180.793072 95.000000
180.843209 90.000000
180.893345 85.000000
180.943482 99.000000
180.993619 116.000000
181.043756 120.000000
181.093892 101.000000
181.144029 104.000000
181.194166 101.000000
181.244303 84.000000
181.294439 106.000000
181.344576 39.000000
181.394713 96.000000
181.444850 109.000000
181.494986 117.000000
181.545123 78.000000
181.595260 124.000000
181.645397 102.000000
181.695533 107.000000
181.745670 105.000000
181.795807 135.000000
181.845943 73.000000
181.896080 47.000000
181.946217 92.000000
181.996354 70.000000
182.046490 70.000000
182.096627 102.000000
182.146764 135.000000
182.196901 80.000000
182.247037 65.000000
182.297174 69.000000
182.347311 48.000000
182.397448 124.000000
182.447584 121.000000
182.497721 117.000000
182.547858 106.000000
182.597995 120.000000
182.648131 129.000000
182.698268 120.000000
182.748405 97.000000
182.798541 100.000000
182.848678 123.000000
182.898815 101.000000
182.948952 108.000000
182.999088 138.000000
183.049225 141.000000
183.099362 90.000000
183.149499 88.000000
183.199635 96.000000
183.249772 105.000000
183.299909 68.000000
183.350046 83.000000
183.400182 109.000000
183.450319 143.000000
183.500456 165.000000
183.550593 49.000000
183.600729 69.000000
183.650866 89.000000
183.701003 84.000000
183.751139 156.000000
183.801276 63.000000
183.851413 15.000000
183.901550 112.000000
183.951686 115.000000
184.001823 93.000000
184.051960 97.000000
184.102097 20.000000
184.152233 65.000000
184.202370 122.000000
184.252507 83.000000
184.302644 70.000000
184.352780 97.000000
184.402917 90.000000
184.453054 124.000000
184.503191 101.000000
184.553327 90.000000
184.603464 70.000000
184.653601 119.000000
184.703737 123.000000
184.753874 91.000000
184.804011 81.000000
184.854148 70.000000
184.904284 68.000000
184.954421 91.000000
185.004558 112.000000
185.054695 132.000000
185.104831 117.000000
185.154968 74.000000
185.205105 0.000000
185.255242 84.000000
185.305378 84.000000
185.355515 62.000000
185.405652 82.000000
185.455789 119.000000
185.505925 91.000000
185.556062 106.000000
185.606199 94.000000
185.656335 100.000000
185.706472 103.000000
185.756609 80.000000
185.806746 80.000000
185.856882 99.000000
185.907019 102.000000
185.957156 136.000000
186.007293 85.000000
186.057429 41.000000
186.107566 89.000000
186.157703 119.000000
186.207840 124.000000
186.257976 136.000000
186.308113 93.000000
186.358250 165.000000
186.408387 118.000000
186.458523 120.000000
186.508660 88.000000
186.558797 96.000000
186.608933 67.000000
186.659070 98.000000
186.709207 105.000000
186.759344 105.000000
186.809480 108.000000
186.859617 82.000000
186.909754 88.000000
186.959891 82.000000
187.010027 37.000000
187.060164 136.000000
187.110301 110.000000
187.160438 181.000000
187.210574 188.000000
187.260711 91.000000
187.310848 161.000000
187.360985 135.000000
187.411121 126.000000
187.461258 170.000000
187.511395 131.000000
187.561531 157.000000
187.611668 103.000000
187.661805 100.000000
187.711942 135.000000
187.762078 117.000000
187.812215 66.000000
187.862352 79.000000
187.912489 81.000000
187.962625 95.000000
188.012762 96.000000
188.062899 99.000000
188.113036 126.000000
188.163172 75.000000
188.213309 84.000000
188.263446 86.000000
188.313582 79.000000
188.363719 75.000000
188.413856 141.000000
188.463993 127.000000
188.514129 108.000000
188.564266 87.000000
188.614403 112.000000
188.664540 122.000000
188.714676 100.000000
188.764813 117.000000
188.814950 118.000000
188.865087 114.000000
188.915223 155.000000
188.965360 123.000000
189.015497 59.000000
189.065634 46.000000
189.115770 76.000000
189.165907 67.000000
189.216044 84.000000
189.266180 49.000000
189.316317 25.000000
189.366454 85.000000
189.416591 52.000000
189.466727 53.000000
189.516864 51.000000
189.567001 119.000000
189.617138 105.000000
189.667274 150.000000
189.717411 107.000000
189.767548 108.000000
189.817685 88.000000
189.867821 79.000000
189.917958 81.000000
189.968095 102.000000
190.018232 170.000000
190.068368 103.000000
190.118505 101.000000
190.168642 79.000000
190.218778 61.000000
190.268915 85.000000
190.319052 45.000000
190.369189 118.000000
190.419325 96.000000
190.469462 151.000000
190.519599 155.000000
190.569736 142.000000
190.619872 126.000000
190.670009 94.000000
190.720146 80.000000
190.770283 113.000000
190.820419 98.000000
190.870556 120.000000
190.920693 83.000000
190.970830 58.000000
191.020966 114.000000
191.071103 115.000000
191.121240 61.000000
191.171376 134.000000
191.221513 57.000000
191.271650 50.000000
191.321787 93.000000
191.371923 99.000000
191.422060 142.000000
191.472197 171.000000
191.522334 132.000000
191.572470 134.000000
191.622607 129.000000
191.672744 130.000000
191.722881 96.000000
191.773017 115.000000
191.823154 110.000000
191.873291 105.000000
191.923428 103.000000
191.973564 75.000000
192.023701 82.000000
192.073838 50.000000
192.123974 115.000000
192.174111 71.000000
192.224248 98.000000
192.274385 50.000000
192.324521 46.000000
192.374658 44.000000
192.424795 118.000000
192.474932 111.000000
192.525068 70.000000
192.575205 85.000000
192.625342 19.000000
192.675479 91.000000
192.725615 168.000000
192.775752 133.000000
192.825889 138.000000
192.876026 21.000000
192.926162 99.000000
192.976299 107.000000
193.026436 111.000000
193.076572 133.000000
193.126709 95.000000
193.176846 0.000000
193.226983 78.000000
193.277119 82.000000
193.327256 58.000000
193.377393 103.000000
193.427530 100.000000
193.477666 97.000000
193.527803 89.000000
193.577940 139.000000
193.628077 111.000000
193.678213 49.000000
193.728350 37.000000
193.778487 70.000000
193.828624 48.000000
193.878760 54.000000
193.928897 126.000000
193.979034 84.000000
194.029170 139.000000
194.079307 169.000000
194.129444 127.000000
194.179581 48.000000
194.229717 48.000000
194.279854 104.000000
194.329991 109.000000
194.380128 99.000000
194.430264 86.000000
194.480401 93.000000
194.530538 58.000000
194.580675 77.000000
194.630811 123.000000
194.680948 105.000000
194.731085 84.000000
194.781222 93.000000
194.831358 106.000000
194.881495 164.000000
194.931632 115.000000
194.981768 108.000000
195.031905 86.000000
195.082042 66.000000
195.132179 115.000000
195.182315 192.000000
195.232452 117.000000
195.282589 83.000000
195.332726 132.000000
195.382862 66.000000
195.432999 123.000000
195.483136 125.000000
195.533273 153.000000
195.583409 83.000000
195.633546 31.000000
195.683683 28.000000
195.733820 124.000000
195.783956 127.000000
195.834093 74.000000
195.884230 131.000000
195.934366 135.000000
195.984503 135.000000
196.034640 67.000000
196.084777 91.000000
196.134913 97.000000
196.185050 48.000000
196.235187 119.000000
196.285324 120.000000
196.335460 93.000000
196.385597 97.000000
196.435734 81.000000
196.485871 60.000000
196.536007 85.000000
196.586144 108.000000
196.636281 98.000000
196.686418 139.000000
196.736554 89.000000
196.786691 99.000000
196.836828 114.000000
196.886964 114.000000
196.937101 124.000000
196.987238 156.000000
197.037375 58.000000
197.087511 132.000000
197.137648 136.000000
197.187785 84.000000
197.237922 96.000000
197.288058 29.000000
197.338195 93.000000
197.388332 49.000000
197.438469 109.000000
197.488605 144.000000
197.538742 76.000000
197.588879 78.000000
197.639015 99.000000
197.689152 79.000000
197.739289 88.000000
197.789426 91.000000
197.839562 65.000000
197.889699 103.000000
197.939836 85.000000
197.989973 144.000000
198.040109 66.000000
198.090246 121.000000
198.140383 101.000000
198.190520 80.000000
198.240656 94.000000
198.290793 98.000000
198.340930 49.000000
198.391067 15.000000
198.441203 70.000000
198.491340 99.000000
198.541477 86.000000
198.591613 64.000000
198.641750 76.000000
198.691887 77.000000
198.742024 98.000000
198.792160 101.000000
198.842297 87.000000
198.892434 94.000000
198.942571 78.000000
198.992707 78.000000
199.042844 88.000000
199.092981 107.000000
199.143118 77.000000
199.193254 73.000000
199.243391 118.000000
199.293528 134.000000
199.343665 110.000000
199.393801 116.000000
199.443938 141.000000
199.494075 144.000000
199.544211 144.000000
199.594348 59.000000
199.644485 18.000000
199.694622 87.000000
199.744758 32.000000
199.794895 74.000000
199.845032 114.000000
199.895169 120.000000
199.945305 133.000000
199.995442 58.000000
200.045579 24.000000
200.095716 111.000000
200.145852 112.000000
200.195989 107.000000
200.246126 138.000000
200.296263 61.000000
200.346399 76.000000
200.396536 78.000000
200.446673 70.000000
200.496809 139.000000
200.546946 143.000000
200.597083 52.000000
200.647220 99.000000
200.697356 82.000000
200.747493 69.000000
200.797630 61.000000
200.847767 47.000000
200.897903 92.000000
200.948040 109.000000
200.998177 112.000000
201.048314 78.000000
201.098450 72.000000
201.148587 62.000000
201.198724 85.000000
201.248861 89.000000
201.298997 123.000000
201.349134 127.000000
201.399271 77.000000
201.449407 170.000000
201.499544 100.000000
201.549681 80.000000
201.599818 100.000000
201.649954 90.000000
201.700091 99.000000
201.750228 129.000000
201.800365 102.000000
201.850501 107.000000
201.900638 161.000000
201.950775 166.000000
202.000912 166.000000
202.051048 114.000000
202.101185 76.000000
202.151322 109.000000
202.201459 121.000000
202.251595 88.000000
202.301732 153.000000
202.351869 90.000000
202.402005 134.000000
202.452142 139.000000
202.502279 122.000000
202.552416 127.000000
202.602552 127.000000
202.652689 97.000000
202.702826 93.000000
202.752963 75.000000
202.803099 37.000000
202.853236 88.000000
202.903373 54.000000
202.953510 109.000000
203.003646 110.000000
203.053783 127.000000
203.103920 157.000000
203.154057 162.000000
203.204193 78.000000
203.254330 105.000000
203.304467 130.000000
203.354603 150.000000
203.404740 152.000000
203.454877 189.000000
203.505014 170.000000
203.555150 94.000000
203.605287 89.000000
203.655424 113.000000
203.705561 120.000000
203.755697 98.000000
203.805834 86.000000
203.855971 72.000000
203.906108 78.000000
203.956244 79.000000
204.006381 164.000000
204.056518 96.000000
204.106655 85.000000
204.156791 49.000000
204.206928 126.000000
204.257065 77.000000
204.307201 109.000000
204.357338 59.000000
204.407475 82.000000
204.457612 168.000000
204.507748 177.000000
204.557885 111.000000
204.608022 87.000000
204.658159 97.000000
204.708295 114.000000
204.758432 115.000000
204.808569 55.000000
204.858706 119.000000
204.908842 85.000000
204.958979 72.000000
205.009116 127.000000
205.059253 91.000000
205.109389 27.000000
205.159526 69.000000
205.209663 132.000000
205.259799 39.000000
205.309936 12.000000
205.360073 38.000000
205.410210 123.000000
205.460346 150.000000
205.510483 144.000000
205.560620 138.000000
205.610757 148.000000
205.660893 45.000000
205.711030 62.000000
205.761167 117.000000
205.811304 79.000000
205.861440 38.000000
205.911577 92.000000
205.961714 87.000000
206.011851 76.000000
206.061987 59.000000
206.112124 80.000000
206.162261 96.000000
206.212397 112.000000
206.262534 44.000000
206.312671 133.000000
206.362808 88.000000
206.412944 109.000000
206.463081 126.000000
206.513218 98.000000
206.563355 105.000000
206.613491 104.000000
206.663628 108.000000
206.713765 86.000000
206.763902 104.000000
206.814038 78.000000
206.864175 56.000000
206.914312 10.000000
206.964448 25.000000
207.014585 68.000000
207.064722 118.000000
207.114859 90.000000
207.164995 75.000000
207.215132 105.000000
207.265269 79.000000
207.315406 80.000000
207.365542 135.000000
207.415679 125.000000
207.465816 48.000000
207.515953 60.000000
207.566089 102.000000
207.616226 107.000000
207.666363 150.000000
207.716500 137.000000
207.766636 122.000000
207.816773 77.000000
207.866910 95.000000
207.917046 76.000000
207.967183 81.000000
208.017320 19.000000
208.067457 82.000000
208.117593 69.000000
208.167730 93.000000
208.217867 120.000000
208.268004 118.000000
208.318140 174.000000
208.368277 101.000000
208.418414 102.000000
208.468551 90.000000
208.518687 109.000000
208.568824 99.000000
208.618961 88.000000
208.669098 127.000000
208.719234 134.000000
208.769371 100.000000
208.819508 19.000000
208.869644 119.000000
208.919781 104.000000
208.969918 107.000000
209.020055 88.000000
209.070191 123.000000
209.120328 108.000000
209.170465 91.000000
209.220602 102.000000
209.270738 103.000000
209.320875 106.000000
209.371012 34.000000
209.421149 60.000000
209.471285 68.000000
209.521422 119.000000
209.571559 127.000000
209.621696 115.000000
209.671832 46.000000
209.721969 105.000000
209.772106 91.000000
209.822242 107.000000
209.872379 133.000000
209.922516 146.000000
209.972653 147.000000
210.022789 68.000000
210.072926 100.000000
210.123063 103.000000
210.173200 113.000000
210.223336 114.000000
210.273473 57.000000
210.323610 113.000000
210.373747 88.000000
210.423883 111.000000
210.474020 101.000000
210.524157 161.000000
210.574294 109.000000
210.624430 112.000000
210.674567 42.000000
210.724704 47.000000
210.774840 148.000000
210.824977 124.000000
210.875114 52.000000
210.925251 118.000000
210.975387 118.000000
211.025524 20.000000
211.075661 97.000000
211.125798 133.000000
211.175934 91.000000
211.226071 129.000000
211.276208 56.000000
211.326345 59.000000
211.376481 85.000000
211.426618 92.000000
211.476755 139.000000
211.526892 142.000000
211.577028 90.000000
211.627165 111.000000
211.677302 100.000000
211.727438 126.000000
211.777575 111.000000
211.827712 85.000000
211.877849 108.000000
211.927985 92.000000
211.978122 165.000000
212.028259 83.000000
212.078396 104.000000
212.128532 59.000000
212.178669 65.000000
212.228806 115.000000
212.278943 142.000000
212.329079 111.000000
212.379216 93.000000
212.429353 99.000000
212.479490 98.000000
212.529626 96.000000
212.579763 102.000000
212.629900 161.000000
212.680036 144.000000
212.730173 126.000000
212.780310 80.000000
212.830447 89.000000
212.880583 97.000000
212.930720 86.000000
212.980857 105.000000
213.030994 64.000000
213.081130 69.000000
213.131267 78.000000
213.181404 81.000000
213.231541 61.000000
213.281677 122.000000
213.331814 123.000000
213.381951 146.000000
213.432088 90.000000
213.482224 49.000000
213.532361 110.000000
213.582498 115.000000
213.632634 54.000000
213.682771 88.000000
213.732908 112.000000
213.783045 119.000000
213.833181 140.000000
213.883318 108.000000
213.933455 123.000000
213.983592 137.000000
214.033728 160.000000
214.083865 162.000000
214.134002 133.000000
214.184139 65.000000
214.234275 67.000000
214.284412 72.000000
214.334549 44.000000
214.384686 19.000000
214.434822 139.000000
214.484959 139.000000
214.535096 126.000000
214.585232 117.000000
214.635369 107.000000
214.685506 117.000000
214.735643 135.000000
214.785779 55.000000
214.835916 77.000000
214.886053 72.000000
214.936190 114.000000
214.986326 124.000000
215.036463 145.000000
215.086600 149.000000
215.136737 57.000000
215.186873 149.000000
215.237010 112.000000
215.287147 94.000000
215.337284 92.000000
215.387420 79.000000
215.437557 72.000000
215.487694 64.000000
215.537830 97.000000
215.587967 112.000000
215.638104 141.000000
215.688241 89.000000
215.738377 60.000000
215.788514 90.000000
215.838651 130.000000
215.888788 94.000000
215.938924 52.000000
215.989061 99.000000
216.039198 93.000000
216.089335 150.000000
216.139471 117.000000
216.189608 91.000000
216.239745 119.000000
216.289881 121.000000
216.340018 108.000000
216.390155 93.000000
216.440292 146.000000
216.490428 105.000000
216.540565 106.000000
216.590702 71.000000
216.640839 103.000000
216.690975 66.000000
216.741112 93.000000
216.791249 79.000000
216.841386 94.000000
216.891522 136.000000
216.941659 164.000000
216.991796 65.000000
217.041933 30.000000
217.092069 102.000000
217.142206 148.000000
217.192343 90.000000
217.242479 61.000000
217.292616 81.000000
217.342753 67.000000
217.392890 91.000000
217.443026 94.000000
217.493163 104.000000
217.543300 127.000000
217.593437 76.000000
217.643573 99.000000
217.693710 127.000000
217.743847 109.000000
217.793984 98.000000
217.844120 64.000000
217.894257 94.000000
217.944394 96.000000
217.994531 135.000000
218.044667 81.000000
218.094804 44.000000
218.144941 30.000000
218.195077 138.000000
218.245214 105.000000
218.295351 70.000000
218.345488 96.000000
218.395624 100.000000
218.445761 98.000000
218.495898 126.000000
218.546035 90.000000
218.596171 58.000000
218.646308 69.000000
218.696445 83.000000
218.746582 97.000000
218.796718 107.000000
218.846855 117.000000
218.896992 120.000000
218.947129 115.000000
218.997265 67.000000
219.047402 96.000000
219.097539 97.000000
219.147675 54.000000
219.197812 127.000000
219.247949 82.000000
219.298086 96.000000
219.348222 151.000000
219.398359 161.000000
219.448496 99.000000
219.498633 121.000000
219.548769 80.000000
219.598906 77.000000
219.649043 121.000000
219.699180 111.000000
219.749316 108.000000
219.799453 110.000000
219.849590 159.000000
219.899727 74.000000
219.949863 110.000000
220.000000 124.000000
220.050137 132.000000
220.100273 88.000000
220.150410 133.000000
220.200547 155.000000
220.250684 87.000000
220.300820 111.000000
220.350957 49.000000
220.401094 78.000000
220.451231 105.000000
220.501367 98.000000
220.551504 127.000000
220.601641 85.000000
220.651778 54.000000
220.701914 109.000000
220.752051 84.000000
220.802188 64.000000
220.852325 76.000000
220.902461 60.000000
220.952598 161.000000
221.002735 122.000000
221.052871 117.000000
221.103008 81.000000
221.153145 72.000000
221.203282 0.000000
221.253418 56.000000
221.303555 88.000000
221.353692 90.000000
221.403829 85.000000
221.453965 65.000000
221.504102 84.000000
221.554239 82.000000
221.604376 138.000000
221.654512 76.000000
221.704649 21.000000
221.754786 74.000000
221.804923 122.000000
221.855059 74.000000
221.905196 147.000000
221.955333 82.000000
222.005469 39.000000
222.055606 129.000000
222.105743 132.000000
222.155880 91.000000
222.206016 61.000000
222.256153 26.000000
222.306290 108.000000
222.356427 78.000000
222.406563 156.000000
222.456700 133.000000
222.506837 88.000000
222.556974 100.000000
222.607110 137.000000
222.657247 140.000000
222.707384 142.000000
222.757521 94.000000
222.807657 108.000000
222.857794 109.000000
222.907931 81.000000
222.958067 86.000000
223.008204 78.000000
223.058341 115.000000
223.108478 89.000000
223.158614 215.000000
223.208751 102.000000
223.258888 103.000000
223.309025 80.000000
223.359161 72.000000
223.409298 85.000000
223.459435 35.000000
223.509572 26.000000
223.559708 37.000000
223.609845 129.000000
223.659982 113.000000
223.710119 96.000000
223.760255 93.000000
223.810392 95.000000
223.860529 124.000000
223.910665 27.000000
223.960802 61.000000
224.010939 70.000000
224.061076 70.000000
224.111212 58.000000
224.161349 119.000000
224.211486 78.000000
224.261623 96.000000
224.311759 54.000000
224.361896 45.000000
224.412033 80.000000
224.462170 67.000000
224.512306 105.000000
224.562443 116.000000
224.612580 153.000000
224.662716 152.000000
224.712853 147.000000
224.762990 78.000000
224.813127 80.000000
224.863263 85.000000
224.913400 111.000000
224.963537 31.000000
225.013674 7.000000
225.063810 82.000000
225.113947 91.000000
225.164084 99.000000
225.214221 150.000000
225.264357 133.000000
225.314494 55.000000
225.364631 120.000000
225.414768 90.000000
225.464904 97.000000
225.515041 102.000000
225.565178 100.000000
225.615314 97.000000
225.665451 165.000000
225.715588 104.000000
225.765725 100.000000
225.815861 111.000000
225.865998 96.000000
225.916135 79.000000
225.966272 86.000000
226.016408 111.000000
226.066545 85.000000
226.116682 75.000000
226.166819 109.000000
226.216955 110.000000
226.267092 103.000000
226.317229 90.000000
226.367366 94.000000
226.417502 0.000000
226.467639 93.000000
226.517776 96.000000
226.567912 99.000000
226.618049 140.000000
226.668186 54.000000
226.718323 111.000000
226.768459 114.000000
226.818596 106.000000
226.868733 127.000000
226.918870 124.000000
226.969006 54.000000
227.019143 127.000000
227.069280 99.000000
227.119417 102.000000
227.169553 121.000000
227.219690 55.000000
227.269827 80.000000
227.319964 99.000000
227.370100 93.000000
227.420237 106.000000
227.470374 6.000000
227.520510 91.000000
227.570647 79.000000
227.620784 25.000000
227.670921 32.000000
227.721057 61.000000
227.771194 59.000000
227.821331 60.000000
227.871468 103.000000
227.921604 77.000000
227.971741 38.000000
228.021878 43.000000
228.072015 79.000000
228.122151 111.000000
228.172288 113.000000
228.222425 97.000000
228.272562 94.000000
228.322698 79.000000
228.372835 128.000000
228.422972 122.000000
228.473108 147.000000
228.523245 98.000000
228.573382 87.000000
228.623519 102.000000
228.673655 208.000000
228.723792 169.000000
228.773929 67.000000
228.824066 94.000000
228.874202 104.000000
228.924339 105.000000
228.974476 127.000000
229.024613 177.000000
229.074749 131.000000
229.124886 119.000000
229.175023 122.000000
229.225160 108.000000
229.275296 170.000000
229.325433 115.000000
229.375570 110.000000
229.425706 13.000000
229.475843 93.000000
229.525980 117.000000
229.576117 102.000000
229.626253 118.000000
229.676390 122.000000
229.726527 164.000000
229.776664 162.000000
229.826800 83.000000
229.876937 106.000000
229.927074 75.000000
229.977211 118.000000
230.027347 121.000000
230.077484 113.000000
230.127621 73.000000
230.177758 79.000000
230.227894 67.000000
230.278031 67.000000
230.328168 136.000000
230.378304 138.000000
230.428441 72.000000
230.478578 78.000000
230.528715 83.000000
230.578851 100.000000
230.628988 121.000000
230.679125 123.000000
230.729262 96.000000
230.779398 67.000000
230.829535 111.000000
230.879672 93.000000
230.929809 97.000000
230.979945 58.000000
231.030082 64.000000
231.080219 44.000000
231.130356 115.000000
231.180492 85.000000
231.230629 111.000000
231.280766 122.000000
231.330902 81.000000
231.381039 111.000000
231.431176 121.000000
231.481313 123.000000
231.531449 98.000000
231.581586 73.000000
231.631723 71.000000
231.681860 102.000000
231.731996 124.000000
231.782133 57.000000
231.832270 63.000000
231.882407 0.000000
231.932543 50.000000
231.982680 93.000000
232.032817 82.000000
232.082954 55.000000
232.133090 75.000000
232.183227 23.000000
232.233364 83.000000
232.283500 73.000000
232.333637 106.000000
232.383774 115.000000
232.433911 104.000000
232.484047 91.000000
232.534184 109.000000
232.584321 39.000000
232.634458 66.000000
232.684594 97.000000
232.734731 14.000000
232.784868 89.000000
232.835005 66.000000
232.885141 128.000000
232.935278 100.000000
232.985415 82.000000
233.035552 110.000000
233.085688 67.000000
233.135825 77.000000
233.185962 158.000000
233.236098 103.000000
233.286235 101.000000
233.336372 87.000000
233.386509 90.000000
233.436645 103.000000
233.486782 136.000000
233.536919 141.000000
233.587056 141.000000
233.637192 139.000000
233.687329 76.000000
233.737466 80.000000
233.787603 25.000000
233.837739 26.000000
233.887876 76.000000
233.938013 79.000000
233.988149 94.000000
234.038286 108.000000
234.088423 88.000000
234.138560 172.000000
234.188696 155.000000
234.238833 100.000000
234.288970 63.000000
234.339107 49.000000
234.389243 81.000000
234.439380 97.000000
234.489517 133.000000
234.539654 102.000000
234.589790 89.000000
234.639927 68.000000
234.690064 151.000000
234.740201 156.000000
234.790337 64.000000
234.840474 67.000000
234.890611 76.000000
234.940747 118.000000
234.990884 81.000000
235.041021 75.000000
235.091158 151.000000
235.141294 155.000000
235.191431 75.000000
235.241568 127.000000
235.291705 122.000000
235.341841 124.000000
235.391978 65.000000
235.442115 33.000000
235.492252 90.000000
235.542388 102.000000
235.592525 86.000000
235.642662 152.000000
235.692799 153.000000
235.742935 90.000000
235.793072 108.000000
235.843209 70.000000
235.893345 76.000000
235.943482 127.000000
235.993619 99.000000
236.043756 70.000000
236.093892 62.000000
236.144029 74.000000
236.194166 91.000000
236.244303 68.000000
236.294439 31.000000
236.344576 85.000000
236.394713 87.000000
236.444850 141.000000
236.494986 131.000000
236.545123 70.000000
236.595260 105.000000
236.645397 123.000000
236.695533 124.000000
236.745670 134.000000
236.795807 77.000000
##END=
