##TITLE= TP_Ejercicio_2a [300 MHZ ¹H NMR en CDCl₃]
##JCAMP-DX= 5.00
##ORIGIN= LISA RMN DB
##DATA TYPE= NMR SPECTRUM
##DATA CLASS= XYDATA
##$BF1= 300.0
##$SFO1= 300.0
##$NUC1= <1H>
##XUNITS=	PPM
##YUNITS=	Intensity
##NPOINTS=	5749
##FIRSTX=	-0.097007
##LASTX=	11.766770
##FIRSTY=	74.000000
##LASTY=	73.000000
##XFACTOR= 1
##YFACTOR= 1
##MAXY= 2345.000000
##MINY= 69.000000
##DELTAX= 0.002064
##XYDATA=(X++(Y..Y))
-0.097007 74.000000
-0.094943 74.000000
-0.092879 75.000000
-0.090815 75.000000
-0.088751 75.000000
-0.086687 75.000000
-0.084623 75.000000
-0.082559 75.000000
-0.080495 75.000000
-0.078431 76.000000
-0.076367 76.000000
-0.074303 76.000000
-0.072239 76.000000
-0.070175 76.000000
-0.068111 76.000000
-0.066047 76.000000
-0.063983 76.000000
-0.061920 76.000000
-0.059856 76.000000
-0.057792 77.000000
-0.055728 77.000000
-0.053664 77.000000
-0.051600 78.000000
-0.049536 78.000000
-0.047472 79.000000
-0.045408 79.000000
-0.043344 79.000000
-0.041280 79.000000
-0.039216 79.000000
-0.037152 79.000000
-0.035088 79.000000
-0.033024 79.000000
-0.030960 79.000000
-0.028896 80.000000
-0.026832 81.000000
-0.024768 84.000000
-0.022704 84.000000
-0.020640 81.000000
-0.018576 85.000000
-0.016512 88.000000
-0.014448 92.000000
-0.012384 108.000000
-0.010320 96.000000
-0.008256 135.000000
-0.006192 274.000000
-0.004128 370.000000
-0.002064 954.000000
0.000000 422.000000
0.002064 187.000000
0.004128 134.000000
0.006192 111.000000
0.008256 106.000000
0.010320 106.000000
0.012384 84.000000
0.014448 86.000000
0.016512 87.000000
0.018576 79.000000
0.020640 78.000000
0.022704 76.000000
0.024768 74.000000
0.026832 74.000000
0.028896 74.000000
0.030960 74.000000
0.033024 74.000000
0.035088 73.000000
0.037152 73.000000
0.039216 73.000000
0.041280 73.000000
0.043344 73.000000
0.045408 73.000000
0.047472 72.000000
0.049536 72.000000
0.051600 72.000000
0.053664 72.000000
0.055728 72.000000
0.057792 72.000000
0.059856 72.000000
0.061920 72.000000
0.063983 72.000000
0.066047 72.000000
0.068111 72.000000
0.070175 72.000000
0.072239 72.000000
0.074303 72.000000
0.076367 72.000000
0.078431 72.000000
0.080495 72.000000
0.082559 72.000000
0.084623 72.000000
0.086687 72.000000
0.088751 72.000000
0.090815 72.000000
0.092879 72.000000
0.094943 72.000000
0.097007 72.000000
0.099071 72.000000
0.101135 72.000000
0.103199 72.000000
0.105263 72.000000
0.107327 72.000000
0.109391 72.000000
0.111455 72.000000
0.113519 72.000000
0.115583 72.000000
0.117647 72.000000
0.119711 72.000000
0.121775 72.000000
0.123839 72.000000
0.125903 72.000000
0.127967 72.000000
0.130031 72.000000
0.132095 72.000000
0.134159 72.000000
0.136223 72.000000
0.138287 72.000000
0.140351 72.000000
0.142415 72.000000
0.144479 72.000000
0.146543 72.000000
0.148607 72.000000
0.150671 72.000000
0.152735 72.000000
0.154799 72.000000
0.156863 72.000000
0.158927 72.000000
0.160991 72.000000
0.163055 72.000000
0.165119 72.000000
0.167183 72.000000
0.169247 72.000000
0.171311 72.000000
0.173375 72.000000
0.175439 71.000000
0.177503 71.000000
0.179567 71.000000
0.181631 71.000000
0.183695 71.000000
0.185759 71.000000
0.187822 71.000000
0.189886 72.000000
0.191950 73.000000
0.194014 73.000000
0.196078 73.000000
0.198142 73.000000
0.200206 73.000000
0.202270 73.000000
0.204334 72.000000
0.206398 72.000000
0.208462 72.000000
0.210526 72.000000
0.212590 72.000000
0.214654 72.000000
0.216718 71.000000
0.218782 72.000000
0.220846 72.000000
0.222910 72.000000
0.224974 72.000000
0.227038 72.000000
0.229102 72.000000
0.231166 72.000000
0.233230 72.000000
0.235294 72.000000
0.237358 72.000000
0.239422 72.000000
0.241486 72.000000
0.243550 72.000000
0.245614 72.000000
0.247678 72.000000
0.249742 71.000000
0.251806 71.000000
0.253870 71.000000
0.255934 71.000000
0.257998 71.000000
0.260062 72.000000
0.262126 72.000000
0.264190 72.000000
0.266254 72.000000
0.268318 72.000000
0.270382 72.000000
0.272446 72.000000
0.274510 72.000000
0.276574 72.000000
0.278638 72.000000
0.280702 71.000000
0.282766 71.000000
0.284830 71.000000
0.286894 71.000000
0.288958 72.000000
0.291022 72.000000
0.293086 72.000000
0.295150 72.000000
0.297214 72.000000
0.299278 72.000000
0.301342 72.000000
0.303406 72.000000
0.305470 72.000000
0.307534 72.000000
0.309598 72.000000
0.311662 72.000000
0.313725 72.000000
0.315789 71.000000
0.317853 71.000000
0.319917 70.000000
0.321981 70.000000
0.324045 70.000000
0.326109 70.000000
0.328173 70.000000
0.330237 71.000000
0.332301 71.000000
0.334365 71.000000
0.336429 72.000000
0.338493 72.000000
0.340557 72.000000
0.342621 72.000000
0.344685 72.000000
0.346749 72.000000
0.348813 72.000000
0.350877 71.000000
0.352941 71.000000
0.355005 71.000000
0.357069 71.000000
0.359133 71.000000
0.361197 71.000000
0.363261 71.000000
0.365325 71.000000
0.367389 71.000000
0.369453 71.000000
0.371517 71.000000
0.373581 71.000000
0.375645 71.000000
0.377709 71.000000
0.379773 71.000000
0.381837 71.000000
0.383901 71.000000
0.385965 71.000000
0.388029 71.000000
0.390093 71.000000
0.392157 71.000000
0.394221 71.000000
0.396285 71.000000
0.398349 71.000000
0.400413 71.000000
0.402477 71.000000
0.404541 71.000000
0.406605 71.000000
0.408669 71.000000
0.410733 71.000000
0.412797 71.000000
0.414861 71.000000
0.416925 71.000000
0.418989 71.000000
0.421053 71.000000
0.423117 71.000000
0.425181 71.000000
0.427245 71.000000
0.429309 71.000000
0.431373 70.000000
0.433437 70.000000
0.435501 70.000000
0.437564 70.000000
0.439628 70.000000
0.441692 70.000000
0.443756 70.000000
0.445820 70.000000
0.447884 70.000000
0.449948 70.000000
0.452012 70.000000
0.454076 70.000000
0.456140 70.000000
0.458204 70.000000
0.460268 70.000000
0.462332 71.000000
0.464396 71.000000
0.466460 71.000000
0.468524 71.000000
0.470588 71.000000
0.472652 72.000000
0.474716 72.000000
0.476780 72.000000
0.478844 72.000000
0.480908 72.000000
0.482972 72.000000
0.485036 72.000000
0.487100 71.000000
0.489164 71.000000
0.491228 71.000000
0.493292 71.000000
0.495356 71.000000
0.497420 71.000000
0.499484 71.000000
0.501548 72.000000
0.503612 72.000000
0.505676 72.000000
0.507740 72.000000
0.509804 72.000000
0.511868 72.000000
0.513932 72.000000
0.515996 72.000000
0.518060 71.000000
0.520124 71.000000
0.522188 70.000000
0.524252 70.000000
0.526316 70.000000
0.528380 70.000000
0.530444 70.000000
0.532508 71.000000
0.534572 71.000000
0.536636 71.000000
0.538700 71.000000
0.540764 71.000000
0.542828 71.000000
0.544892 71.000000
0.546956 71.000000
0.549020 70.000000
0.551084 70.000000
0.553148 70.000000
0.555212 70.000000
0.557276 70.000000
0.559340 71.000000
0.561404 71.000000
0.563467 71.000000
0.565531 71.000000
0.567595 71.000000
0.569659 71.000000
0.571723 71.000000
0.573787 71.000000
0.575851 71.000000
0.577915 71.000000
0.579979 71.000000
0.582043 72.000000
0.584107 72.000000
0.586171 72.000000
0.588235 72.000000
0.590299 72.000000
0.592363 72.000000
0.594427 71.000000
0.596491 71.000000
0.598555 70.000000
0.600619 70.000000
0.602683 70.000000
0.604747 70.000000
0.606811 70.000000
0.608875 70.000000
0.610939 71.000000
0.613003 71.000000
0.615067 71.000000
0.617131 72.000000
0.619195 72.000000
0.621259 72.000000
0.623323 70.000000
0.625387 70.000000
0.627451 70.000000
0.629515 70.000000
0.631579 71.000000
0.633643 71.000000
0.635707 71.000000
0.637771 71.000000
0.639835 71.000000
0.641899 71.000000
0.643963 71.000000
0.646027 71.000000
0.648091 71.000000
0.650155 71.000000
0.652219 71.000000
0.654283 71.000000
0.656347 71.000000
0.658411 71.000000
0.660475 71.000000
0.662539 71.000000
0.664603 71.000000
0.666667 71.000000
0.668731 71.000000
0.670795 71.000000
0.672859 71.000000
0.674923 71.000000
0.676987 72.000000
0.679051 72.000000
0.681115 72.000000
0.683179 72.000000
0.685243 72.000000
0.687307 71.000000
0.689370 71.000000
0.691434 71.000000
0.693498 71.000000
0.695562 71.000000
0.697626 72.000000
0.699690 72.000000
0.701754 72.000000
0.703818 72.000000
0.705882 72.000000
0.707946 71.000000
0.710010 71.000000
0.712074 73.000000
0.714138 73.000000
0.716202 73.000000
0.718266 72.000000
0.720330 72.000000
0.722394 71.000000
0.724458 71.000000
0.726522 71.000000
0.728586 71.000000
0.730650 71.000000
0.732714 71.000000
0.734778 71.000000
0.736842 71.000000
0.738906 71.000000
0.740970 70.000000
0.743034 70.000000
0.745098 70.000000
0.747162 70.000000
0.749226 70.000000
0.751290 71.000000
0.753354 71.000000
0.755418 71.000000
0.757482 72.000000
0.759546 72.000000
0.761610 72.000000
0.763674 72.000000
0.765738 72.000000
0.767802 72.000000
0.769866 72.000000
0.771930 71.000000
0.773994 71.000000
0.776058 71.000000
0.778122 71.000000
0.780186 71.000000
0.782250 71.000000
0.784314 71.000000
0.786378 71.000000
0.788442 72.000000
0.790506 72.000000
0.792570 72.000000
0.794634 72.000000
0.796698 72.000000
0.798762 71.000000
0.800826 71.000000
0.802890 70.000000
0.804954 70.000000
0.807018 70.000000
0.809082 70.000000
0.811146 70.000000
0.813209 70.000000
0.815273 70.000000
0.817337 70.000000
0.819401 70.000000
0.821465 70.000000
0.823529 70.000000
0.825593 70.000000
0.827657 70.000000
0.829721 70.000000
0.831785 70.000000
0.833849 71.000000
0.835913 71.000000
0.837977 71.000000
0.840041 71.000000
0.842105 71.000000
0.844169 71.000000
0.846233 71.000000
0.848297 71.000000
0.850361 71.000000
0.852425 71.000000
0.854489 71.000000
0.856553 71.000000
0.858617 72.000000
0.860681 72.000000
0.862745 72.000000
0.864809 72.000000
0.866873 72.000000
0.868937 72.000000
0.871001 72.000000
0.873065 71.000000
0.875129 71.000000
0.877193 71.000000
0.879257 71.000000
0.881321 71.000000
0.883385 71.000000
0.885449 71.000000
0.887513 71.000000
0.889577 71.000000
0.891641 71.000000
0.893705 71.000000
0.895769 71.000000
0.897833 71.000000
0.899897 71.000000
0.901961 71.000000
0.904025 72.000000
0.906089 73.000000
0.908153 73.000000
0.910217 72.000000
0.912281 72.000000
0.914345 71.000000
0.916409 73.000000
0.918473 73.000000
0.920537 73.000000
0.922601 73.000000
0.924665 73.000000
0.926729 73.000000
0.928793 75.000000
0.930857 75.000000
0.932921 74.000000
0.934985 74.000000
0.937049 73.000000
0.939112 72.000000
0.941176 71.000000
0.943240 71.000000
0.945304 71.000000
0.947368 71.000000
0.949432 71.000000
0.951496 71.000000
0.953560 71.000000
0.955624 71.000000
0.957688 71.000000
0.959752 71.000000
0.961816 71.000000
0.963880 71.000000
0.965944 71.000000
0.968008 71.000000
0.970072 71.000000
0.972136 71.000000
0.974200 71.000000
0.976264 71.000000
0.978328 71.000000
0.980392 71.000000
0.982456 71.000000
0.984520 71.000000
0.986584 71.000000
0.988648 71.000000
0.990712 71.000000
0.992776 71.000000
0.994840 71.000000
0.996904 71.000000
0.998968 71.000000
1.001032 71.000000
1.003096 71.000000
1.005160 70.000000
1.007224 70.000000
1.009288 70.000000
1.011352 70.000000
1.013416 70.000000
1.015480 71.000000
1.017544 71.000000
1.019608 71.000000
1.021672 71.000000
1.023736 71.000000
1.025800 71.000000
1.027864 71.000000
1.029928 71.000000
1.031992 71.000000
1.034056 70.000000
1.036120 70.000000
1.038184 70.000000
1.040248 70.000000
1.042312 70.000000
1.044376 70.000000
1.046440 70.000000
1.048504 70.000000
1.050568 70.000000
1.052632 70.000000
1.054696 71.000000
1.056760 71.000000
1.058824 71.000000
1.060888 71.000000
1.062951 71.000000
1.065015 71.000000
1.067079 71.000000
1.069143 71.000000
1.071207 71.000000
1.073271 71.000000
1.075335 70.000000
1.077399 70.000000
1.079463 70.000000
1.081527 70.000000
1.083591 70.000000
1.085655 70.000000
1.087719 70.000000
1.089783 70.000000
1.091847 70.000000
1.093911 70.000000
1.095975 71.000000
1.098039 71.000000
1.100103 71.000000
1.102167 72.000000
1.104231 72.000000
1.106295 72.000000
1.108359 72.000000
1.110423 72.000000
1.112487 72.000000
1.114551 72.000000
1.116615 72.000000
1.118679 72.000000
1.120743 72.000000
1.122807 72.000000
1.124871 72.000000
1.126935 72.000000
1.128999 72.000000
1.131063 72.000000
1.133127 72.000000
1.135191 72.000000
1.137255 72.000000
1.139319 72.000000
1.141383 72.000000
1.143447 72.000000
1.145511 72.000000
1.147575 72.000000
1.149639 72.000000
1.151703 72.000000
1.153767 72.000000
1.155831 71.000000
1.157895 71.000000
1.159959 71.000000
1.162023 71.000000
1.164087 71.000000
1.166151 71.000000
1.168215 71.000000
1.170279 71.000000
1.172343 71.000000
1.174407 71.000000
1.176471 71.000000
1.178535 71.000000
1.180599 71.000000
1.182663 71.000000
1.184727 71.000000
1.186791 71.000000
1.188854 71.000000
1.190918 71.000000
1.192982 71.000000
1.195046 71.000000
1.197110 71.000000
1.199174 71.000000
1.201238 71.000000
1.203302 71.000000
1.205366 71.000000
1.207430 72.000000
1.209494 72.000000
1.211558 72.000000
1.213622 72.000000
1.215686 72.000000
1.217750 72.000000
1.219814 72.000000
1.221878 72.000000
1.223942 72.000000
1.226006 71.000000
1.228070 71.000000
1.230134 70.000000
1.232198 70.000000
1.234262 70.000000
1.236326 70.000000
1.238390 71.000000
1.240454 71.000000
1.242518 71.000000
1.244582 72.000000
1.246646 72.000000
1.248710 72.000000
1.250774 72.000000
1.252838 72.000000
1.254902 71.000000
1.256966 71.000000
1.259030 71.000000
1.261094 71.000000
1.263158 71.000000
1.265222 71.000000
1.267286 71.000000
1.269350 71.000000
1.271414 71.000000
1.273478 71.000000
1.275542 71.000000
1.277606 71.000000
1.279670 71.000000
1.281734 71.000000
1.283798 71.000000
1.285862 71.000000
1.287926 71.000000
1.289990 71.000000
1.292054 71.000000
1.294118 71.000000
1.296182 71.000000
1.298246 71.000000
1.300310 71.000000
1.302374 72.000000
1.304438 73.000000
1.306502 75.000000
1.308566 76.000000
1.310630 76.000000
1.312693 73.000000
1.314757 73.000000
1.316821 72.000000
1.318885 72.000000
1.320949 73.000000
1.323013 77.000000
1.325077 77.000000
1.327141 73.000000
1.329205 73.000000
1.331269 72.000000
1.333333 71.000000
1.335397 71.000000
1.337461 71.000000
1.339525 71.000000
1.341589 71.000000
1.343653 71.000000
1.345717 71.000000
1.347781 71.000000
1.349845 71.000000
1.351909 71.000000
1.353973 72.000000
1.356037 72.000000
1.358101 72.000000
1.360165 72.000000
1.362229 72.000000
1.364293 72.000000
1.366357 72.000000
1.368421 71.000000
1.370485 71.000000
1.372549 71.000000
1.374613 71.000000
1.376677 71.000000
1.378741 72.000000
1.380805 72.000000
1.382869 72.000000
1.384933 72.000000
1.386997 72.000000
1.389061 72.000000
1.391125 72.000000
1.393189 71.000000
1.395253 71.000000
1.397317 71.000000
1.399381 71.000000
1.401445 71.000000
1.403509 71.000000
1.405573 71.000000
1.407637 71.000000
1.409701 71.000000
1.411765 71.000000
1.413829 71.000000
1.415893 71.000000
1.417957 71.000000
1.420021 71.000000
1.422085 71.000000
1.424149 71.000000
1.426213 71.000000
1.428277 71.000000
1.430341 71.000000
1.432405 71.000000
1.434469 70.000000
1.436533 70.000000
1.438596 70.000000
1.440660 70.000000
1.442724 70.000000
1.444788 72.000000
1.446852 72.000000
1.448916 72.000000
1.450980 72.000000
1.453044 71.000000
1.455108 71.000000
1.457172 71.000000
1.459236 71.000000
1.461300 71.000000
1.463364 71.000000
1.465428 71.000000
1.467492 71.000000
1.469556 71.000000
1.471620 71.000000
1.473684 71.000000
1.475748 71.000000
1.477812 71.000000
1.479876 71.000000
1.481940 71.000000
1.484004 71.000000
1.486068 71.000000
1.488132 71.000000
1.490196 71.000000
1.492260 71.000000
1.494324 71.000000
1.496388 71.000000
1.498452 71.000000
1.500516 71.000000
1.502580 72.000000
1.504644 72.000000
1.506708 72.000000
1.508772 72.000000
1.510836 72.000000
1.512900 72.000000
1.514964 72.000000
1.517028 71.000000
1.519092 71.000000
1.521156 71.000000
1.523220 71.000000
1.525284 71.000000
1.527348 71.000000
1.529412 71.000000
1.531476 71.000000
1.533540 71.000000
1.535604 71.000000
1.537668 72.000000
1.539732 73.000000
1.541796 74.000000
1.543860 76.000000
1.545924 89.000000
1.547988 107.000000
1.550052 108.000000
1.552116 85.000000
1.554180 78.000000
1.556244 77.000000
1.558308 75.000000
1.560372 72.000000
1.562436 72.000000
1.564499 72.000000
1.566563 72.000000
1.568627 72.000000
1.570691 71.000000
1.572755 71.000000
1.574819 71.000000
1.576883 71.000000
1.578947 71.000000
1.581011 71.000000
1.583075 71.000000
1.585139 71.000000
1.587203 71.000000
1.589267 71.000000
1.591331 71.000000
1.593395 71.000000
1.595459 71.000000
1.597523 71.000000
1.599587 70.000000
1.601651 70.000000
1.603715 70.000000
1.605779 70.000000
1.607843 70.000000
1.609907 70.000000
1.611971 70.000000
1.614035 70.000000
1.616099 70.000000
1.618163 70.000000
1.620227 70.000000
1.622291 70.000000
1.624355 70.000000
1.626419 70.000000
1.628483 70.000000
1.630547 71.000000
1.632611 71.000000
1.634675 71.000000
1.636739 71.000000
1.638803 71.000000
1.640867 71.000000
1.642931 71.000000
1.644995 71.000000
1.647059 71.000000
1.649123 71.000000
1.651187 71.000000
1.653251 71.000000
1.655315 71.000000
1.657379 71.000000
1.659443 71.000000
1.661507 71.000000
1.663571 71.000000
1.665635 71.000000
1.667699 71.000000
1.669763 71.000000
1.671827 71.000000
1.673891 71.000000
1.675955 71.000000
1.678019 71.000000
1.680083 71.000000
1.682147 71.000000
1.684211 71.000000
1.686275 71.000000
1.688338 71.000000
1.690402 71.000000
1.692466 71.000000
1.694530 71.000000
1.696594 71.000000
1.698658 71.000000
1.700722 70.000000
1.702786 70.000000
1.704850 70.000000
1.706914 70.000000
1.708978 70.000000
1.711042 72.000000
1.713106 72.000000
1.715170 72.000000
1.717234 72.000000
1.719298 71.000000
1.721362 71.000000
1.723426 70.000000
1.725490 70.000000
1.727554 70.000000
1.729618 70.000000
1.731682 70.000000
1.733746 70.000000
1.735810 70.000000
1.737874 70.000000
1.739938 70.000000
1.742002 70.000000
1.744066 70.000000
1.746130 70.000000
1.748194 70.000000
1.750258 70.000000
1.752322 70.000000
1.754386 70.000000
1.756450 70.000000
1.758514 70.000000
1.760578 70.000000
1.762642 70.000000
1.764706 71.000000
1.766770 71.000000
1.768834 71.000000
1.770898 71.000000
1.772962 71.000000
1.775026 71.000000
1.777090 71.000000
1.779154 71.000000
1.781218 71.000000
1.783282 71.000000
1.785346 71.000000
1.787410 71.000000
1.789474 71.000000
1.791538 71.000000
1.793602 71.000000
1.795666 71.000000
1.797730 71.000000
1.799794 71.000000
1.801858 71.000000
1.803922 71.000000
1.805986 70.000000
1.808050 70.000000
1.810114 70.000000
1.812178 70.000000
1.814241 71.000000
1.816305 71.000000
1.818369 71.000000
1.820433 71.000000
1.822497 71.000000
1.824561 71.000000
1.826625 71.000000
1.828689 71.000000
1.830753 71.000000
1.832817 71.000000
1.834881 71.000000
1.836945 71.000000
1.839009 71.000000
1.841073 72.000000
1.843137 72.000000
1.845201 72.000000
1.847265 72.000000
1.849329 71.000000
1.851393 71.000000
1.853457 71.000000
1.855521 71.000000
1.857585 71.000000
1.859649 71.000000
1.861713 71.000000
1.863777 71.000000
1.865841 71.000000
1.867905 71.000000
1.869969 71.000000
1.872033 71.000000
1.874097 71.000000
1.876161 71.000000
1.878225 71.000000
1.880289 70.000000
1.882353 70.000000
1.884417 70.000000
1.886481 70.000000
1.888545 70.000000
1.890609 70.000000
1.892673 70.000000
1.894737 70.000000
1.896801 70.000000
1.898865 70.000000
1.900929 71.000000
1.902993 71.000000
1.905057 71.000000
1.907121 71.000000
1.909185 71.000000
1.911249 71.000000
1.913313 71.000000
1.915377 71.000000
1.917441 71.000000
1.919505 71.000000
1.921569 70.000000
1.923633 70.000000
1.925697 70.000000
1.927761 70.000000
1.929825 70.000000
1.931889 71.000000
1.933953 71.000000
1.936017 71.000000
1.938080 71.000000
1.940144 71.000000
1.942208 71.000000
1.944272 71.000000
1.946336 71.000000
1.948400 71.000000
1.950464 70.000000
1.952528 70.000000
1.954592 70.000000
1.956656 70.000000
1.958720 70.000000
1.960784 70.000000
1.962848 70.000000
1.964912 70.000000
1.966976 70.000000
1.969040 70.000000
1.971104 70.000000
1.973168 70.000000
1.975232 70.000000
1.977296 70.000000
1.979360 70.000000
1.981424 71.000000
1.983488 71.000000
1.985552 71.000000
1.987616 71.000000
1.989680 71.000000
1.991744 71.000000
1.993808 71.000000
1.995872 71.000000
1.997936 71.000000
2.000000 71.000000
2.002064 71.000000
2.004128 71.000000
2.006192 70.000000
2.008256 70.000000
2.010320 70.000000
2.012384 70.000000
2.014448 70.000000
2.016512 70.000000
2.018576 70.000000
2.020640 70.000000
2.022704 70.000000
2.024768 70.000000
2.026832 70.000000
2.028896 70.000000
2.030960 70.000000
2.033024 70.000000
2.035088 70.000000
2.037152 70.000000
2.039216 70.000000
2.041280 70.000000
2.043344 70.000000
2.045408 70.000000
2.047472 70.000000
2.049536 70.000000
2.051600 70.000000
2.053664 70.000000
2.055728 70.000000
2.057792 70.000000
2.059856 70.000000
2.061920 70.000000
2.063983 70.000000
2.066047 70.000000
2.068111 70.000000
2.070175 70.000000
2.072239 70.000000
2.074303 70.000000
2.076367 70.000000
2.078431 70.000000
2.080495 70.000000
2.082559 70.000000
2.084623 70.000000
2.086687 70.000000
2.088751 70.000000
2.090815 70.000000
2.092879 70.000000
2.094943 70.000000
2.097007 71.000000
2.099071 71.000000
2.101135 71.000000
2.103199 72.000000
2.105263 72.000000
2.107327 72.000000
2.109391 72.000000
2.111455 72.000000
2.113519 72.000000
2.115583 72.000000
2.117647 72.000000
2.119711 72.000000
2.121775 72.000000
2.123839 71.000000
2.125903 71.000000
2.127967 70.000000
2.130031 70.000000
2.132095 70.000000
2.134159 70.000000
2.136223 70.000000
2.138287 71.000000
2.140351 71.000000
2.142415 71.000000
2.144479 71.000000
2.146543 71.000000
2.148607 71.000000
2.150671 71.000000
2.152735 71.000000
2.154799 71.000000
2.156863 71.000000
2.158927 70.000000
2.160991 70.000000
2.163055 70.000000
2.165119 70.000000
2.167183 70.000000
2.169247 70.000000
2.171311 70.000000
2.173375 70.000000
2.175439 70.000000
2.177503 70.000000
2.179567 70.000000
2.181631 70.000000
2.183695 70.000000
2.185759 70.000000
2.187822 70.000000
2.189886 70.000000
2.191950 70.000000
2.194014 70.000000
2.196078 70.000000
2.198142 70.000000
2.200206 70.000000
2.202270 70.000000
2.204334 70.000000
2.206398 70.000000
2.208462 70.000000
2.210526 70.000000
2.212590 70.000000
2.214654 70.000000
2.216718 70.000000
2.218782 70.000000
2.220846 70.000000
2.222910 70.000000
2.224974 70.000000
2.227038 70.000000
2.229102 70.000000
2.231166 70.000000
2.233230 70.000000
2.235294 70.000000
2.237358 70.000000
2.239422 70.000000
2.241486 70.000000
2.243550 70.000000
2.245614 70.000000
2.247678 70.000000
2.249742 71.000000
2.251806 71.000000
2.253870 71.000000
2.255934 71.000000
2.257998 71.000000
2.260062 71.000000
2.262126 71.000000
2.264190 71.000000
2.266254 71.000000
2.268318 71.000000
2.270382 70.000000
2.272446 70.000000
2.274510 70.000000
2.276574 70.000000
2.278638 70.000000
2.280702 70.000000
2.282766 70.000000
2.284830 70.000000
2.286894 70.000000
2.288958 70.000000
2.291022 70.000000
2.293086 70.000000
2.295150 70.000000
2.297214 70.000000
2.299278 71.000000
2.301342 71.000000
2.303406 71.000000
2.305470 71.000000
2.307534 71.000000
2.309598 71.000000
2.311662 71.000000
2.313725 71.000000
2.315789 71.000000
2.317853 71.000000
2.319917 70.000000
2.321981 70.000000
2.324045 70.000000
2.326109 70.000000
2.328173 70.000000
2.330237 70.000000
2.332301 70.000000
2.334365 70.000000
2.336429 70.000000
2.338493 70.000000
2.340557 70.000000
2.342621 70.000000
2.344685 70.000000
2.346749 70.000000
2.348813 70.000000
2.350877 70.000000
2.352941 70.000000
2.355005 70.000000
2.357069 70.000000
2.359133 70.000000
2.361197 70.000000
2.363261 70.000000
2.365325 70.000000
2.367389 70.000000
2.369453 70.000000
2.371517 70.000000
2.373581 70.000000
2.375645 70.000000
2.377709 70.000000
2.379773 70.000000
2.381837 70.000000
2.383901 70.000000
2.385965 70.000000
2.388029 70.000000
2.390093 71.000000
2.392157 71.000000
2.394221 71.000000
2.396285 71.000000
2.398349 71.000000
2.400413 71.000000
2.402477 71.000000
2.404541 71.000000
2.406605 70.000000
2.408669 70.000000
2.410733 70.000000
2.412797 71.000000
2.414861 72.000000
2.416925 72.000000
2.418989 72.000000
2.421053 72.000000
2.423117 72.000000
2.425181 71.000000
2.427245 71.000000
2.429309 71.000000
2.431373 71.000000
2.433437 71.000000
2.435501 70.000000
2.437564 70.000000
2.439628 70.000000
2.441692 70.000000
2.443756 70.000000
2.445820 71.000000
2.447884 71.000000
2.449948 71.000000
2.452012 71.000000
2.454076 71.000000
2.456140 71.000000
2.458204 71.000000
2.460268 71.000000
2.462332 71.000000
2.464396 71.000000
2.466460 70.000000
2.468524 70.000000
2.470588 70.000000
2.472652 70.000000
2.474716 70.000000
2.476780 70.000000
2.478844 70.000000
2.480908 70.000000
2.482972 70.000000
2.485036 70.000000
2.487100 70.000000
2.489164 70.000000
2.491228 70.000000
2.493292 70.000000
2.495356 70.000000
2.497420 70.000000
2.499484 71.000000
2.501548 72.000000
2.503612 72.000000
2.505676 72.000000
2.507740 72.000000
2.509804 71.000000
2.511868 71.000000
2.513932 70.000000
2.515996 70.000000
2.518060 70.000000
2.520124 70.000000
2.522188 70.000000
2.524252 70.000000
2.526316 70.000000
2.528380 70.000000
2.530444 70.000000
2.532508 70.000000
2.534572 70.000000
2.536636 70.000000
2.538700 70.000000
2.540764 70.000000
2.542828 70.000000
2.544892 70.000000
2.546956 70.000000
2.549020 70.000000
2.551084 70.000000
2.553148 70.000000
2.555212 70.000000
2.557276 70.000000
2.559340 70.000000
2.561404 70.000000
2.563467 70.000000
2.565531 70.000000
2.567595 70.000000
2.569659 70.000000
2.571723 70.000000
2.573787 70.000000
2.575851 70.000000
2.577915 70.000000
2.579979 70.000000
2.582043 70.000000
2.584107 70.000000
2.586171 70.000000
2.588235 70.000000
2.590299 70.000000
2.592363 70.000000
2.594427 70.000000
2.596491 70.000000
2.598555 70.000000
2.600619 70.000000
2.602683 70.000000
2.604747 70.000000
2.606811 70.000000
2.608875 70.000000
2.610939 70.000000
2.613003 70.000000
2.615067 70.000000
2.617131 70.000000
2.619195 70.000000
2.621259 70.000000
2.623323 70.000000
2.625387 69.000000
2.627451 69.000000
2.629515 69.000000
2.631579 69.000000
2.633643 69.000000
2.635707 70.000000
2.637771 70.000000
2.639835 70.000000
2.641899 70.000000
2.643963 70.000000
2.646027 70.000000
2.648091 70.000000
2.650155 70.000000
2.652219 70.000000
2.654283 70.000000
2.656347 70.000000
2.658411 70.000000
2.660475 70.000000
2.662539 70.000000
2.664603 70.000000
2.666667 70.000000
2.668731 70.000000
2.670795 70.000000
2.672859 70.000000
2.674923 70.000000
2.676987 70.000000
2.679051 70.000000
2.681115 70.000000
2.683179 70.000000
2.685243 70.000000
2.687307 70.000000
2.689370 70.000000
2.691434 70.000000
2.693498 70.000000
2.695562 70.000000
2.697626 70.000000
2.699690 70.000000
2.701754 70.000000
2.703818 70.000000
2.705882 70.000000
2.707946 70.000000
2.710010 70.000000
2.712074 70.000000
2.714138 70.000000
2.716202 70.000000
2.718266 70.000000
2.720330 70.000000
2.722394 70.000000
2.724458 70.000000
2.726522 70.000000
2.728586 70.000000
2.730650 70.000000
2.732714 70.000000
2.734778 70.000000
2.736842 71.000000
2.738906 71.000000
2.740970 71.000000
2.743034 71.000000
2.745098 71.000000
2.747162 71.000000
2.749226 71.000000
2.751290 71.000000
2.753354 71.000000
2.755418 71.000000
2.757482 71.000000
2.759546 71.000000
2.761610 71.000000
2.763674 71.000000
2.765738 71.000000
2.767802 71.000000
2.769866 71.000000
2.771930 71.000000
2.773994 71.000000
2.776058 71.000000
2.778122 70.000000
2.780186 70.000000
2.782250 70.000000
2.784314 70.000000
2.786378 70.000000
2.788442 70.000000
2.790506 70.000000
2.792570 70.000000
2.794634 70.000000
2.796698 70.000000
2.798762 70.000000
2.800826 70.000000
2.802890 70.000000
2.804954 70.000000
2.807018 70.000000
2.809082 70.000000
2.811146 70.000000
2.813209 70.000000
2.815273 70.000000
2.817337 70.000000
2.819401 70.000000
2.821465 70.000000
2.823529 70.000000
2.825593 70.000000
2.827657 70.000000
2.829721 70.000000
2.831785 70.000000
2.833849 70.000000
2.835913 70.000000
2.837977 70.000000
2.840041 70.000000
2.842105 70.000000
2.844169 70.000000
2.846233 70.000000
2.848297 70.000000
2.850361 70.000000
2.852425 70.000000
2.854489 70.000000
2.856553 70.000000
2.858617 70.000000
2.860681 70.000000
2.862745 70.000000
2.864809 70.000000
2.866873 70.000000
2.868937 70.000000
2.871001 70.000000
2.873065 70.000000
2.875129 70.000000
2.877193 69.000000
2.879257 69.000000
2.881321 69.000000
2.883385 69.000000
2.885449 69.000000
2.887513 69.000000
2.889577 69.000000
2.891641 69.000000
2.893705 69.000000
2.895769 69.000000
2.897833 70.000000
2.899897 70.000000
2.901961 70.000000
2.904025 70.000000
2.906089 70.000000
2.908153 70.000000
2.910217 70.000000
2.912281 70.000000
2.914345 70.000000
2.916409 70.000000
2.918473 70.000000
2.920537 70.000000
2.922601 70.000000
2.924665 70.000000
2.926729 70.000000
2.928793 70.000000
2.930857 70.000000
2.932921 70.000000
2.934985 70.000000
2.937049 70.000000
2.939112 70.000000
2.941176 70.000000
2.943240 70.000000
2.945304 70.000000
2.947368 70.000000
2.949432 70.000000
2.951496 70.000000
2.953560 70.000000
2.955624 70.000000
2.957688 70.000000
2.959752 70.000000
2.961816 70.000000
2.963880 70.000000
2.965944 70.000000
2.968008 70.000000
2.970072 70.000000
2.972136 70.000000
2.974200 70.000000
2.976264 70.000000
2.978328 71.000000
2.980392 72.000000
2.982456 72.000000
2.984520 70.000000
2.986584 70.000000
2.988648 70.000000
2.990712 70.000000
2.992776 70.000000
2.994840 70.000000
2.996904 70.000000
2.998968 70.000000
3.001032 71.000000
3.003096 72.000000
3.005160 72.000000
3.007224 72.000000
3.009288 72.000000
3.011352 71.000000
3.013416 71.000000
3.015480 70.000000
3.017544 70.000000
3.019608 70.000000
3.021672 70.000000
3.023736 70.000000
3.025800 70.000000
3.027864 70.000000
3.029928 70.000000
3.031992 70.000000
3.034056 71.000000
3.036120 71.000000
3.038184 71.000000
3.040248 71.000000
3.042312 71.000000
3.044376 71.000000
3.046440 71.000000
3.048504 71.000000
3.050568 71.000000
3.052632 71.000000
3.054696 70.000000
3.056760 70.000000
3.058824 70.000000
3.060888 70.000000
3.062951 70.000000
3.065015 70.000000
3.067079 70.000000
3.069143 70.000000
3.071207 70.000000
3.073271 70.000000
3.075335 70.000000
3.077399 70.000000
3.079463 70.000000
3.081527 70.000000
3.083591 70.000000
3.085655 70.000000
3.087719 70.000000
3.089783 70.000000
3.091847 70.000000
3.093911 70.000000
3.095975 70.000000
3.098039 70.000000
3.100103 70.000000
3.102167 70.000000
3.104231 70.000000
3.106295 71.000000
3.108359 71.000000
3.110423 71.000000
3.112487 71.000000
3.114551 71.000000
3.116615 71.000000
3.118679 71.000000
3.120743 71.000000
3.122807 71.000000
3.124871 71.000000
3.126935 71.000000
3.128999 71.000000
3.131063 71.000000
3.133127 71.000000
3.135191 71.000000
3.137255 71.000000
3.139319 71.000000
3.141383 71.000000
3.143447 71.000000
3.145511 70.000000
3.147575 70.000000
3.149639 70.000000
3.151703 70.000000
3.153767 70.000000
3.155831 70.000000
3.157895 70.000000
3.159959 70.000000
3.162023 70.000000
3.164087 70.000000
3.166151 70.000000
3.168215 70.000000
3.170279 70.000000
3.172343 70.000000
3.174407 70.000000
3.176471 71.000000
3.178535 71.000000
3.180599 71.000000
3.182663 71.000000
3.184727 71.000000
3.186791 71.000000
3.188854 71.000000
3.190918 71.000000
3.192982 71.000000
3.195046 71.000000
3.197110 71.000000
3.199174 71.000000
3.201238 71.000000
3.203302 72.000000
3.205366 72.000000
3.207430 72.000000
3.209494 72.000000
3.211558 72.000000
3.213622 72.000000
3.215686 71.000000
3.217750 71.000000
3.219814 71.000000
3.221878 71.000000
3.223942 71.000000
3.226006 72.000000
3.228070 72.000000
3.230134 72.000000
3.232198 72.000000
3.234262 72.000000
3.236326 72.000000
3.238390 72.000000
3.240454 72.000000
3.242518 72.000000
3.244582 72.000000
3.246646 72.000000
3.248710 72.000000
3.250774 72.000000
3.252838 72.000000
3.254902 72.000000
3.256966 72.000000
3.259030 72.000000
3.261094 72.000000
3.263158 72.000000
3.265222 72.000000
3.267286 72.000000
3.269350 72.000000
3.271414 72.000000
3.273478 72.000000
3.275542 72.000000
3.277606 72.000000
3.279670 72.000000
3.281734 72.000000
3.283798 72.000000
3.285862 72.000000
3.287926 72.000000
3.289990 72.000000
3.292054 72.000000
3.294118 73.000000
3.296182 73.000000
3.298246 73.000000
3.300310 73.000000
3.302374 73.000000
3.304438 73.000000
3.306502 73.000000
3.308566 73.000000
3.310630 73.000000
3.312693 73.000000
3.314757 73.000000
3.316821 73.000000
3.318885 73.000000
3.320949 73.000000
3.323013 73.000000
3.325077 73.000000
3.327141 72.000000
3.329205 72.000000
3.331269 72.000000
3.333333 72.000000
3.335397 72.000000
3.337461 72.000000
3.339525 72.000000
3.341589 72.000000
3.343653 72.000000
3.345717 72.000000
3.347781 73.000000
3.349845 73.000000
3.351909 73.000000
3.353973 73.000000
3.356037 73.000000
3.358101 73.000000
3.360165 73.000000
3.362229 73.000000
3.364293 73.000000
3.366357 73.000000
3.368421 73.000000
3.370485 73.000000
3.372549 73.000000
3.374613 73.000000
3.376677 73.000000
3.378741 74.000000
3.380805 74.000000
3.382869 74.000000
3.384933 74.000000
3.386997 74.000000
3.389061 74.000000
3.391125 74.000000
3.393189 74.000000
3.395253 74.000000
3.397317 74.000000
3.399381 74.000000
3.401445 74.000000
3.403509 74.000000
3.405573 74.000000
3.407637 75.000000
3.409701 75.000000
3.411765 75.000000
3.413829 75.000000
3.415893 75.000000
3.417957 75.000000
3.420021 75.000000
3.422085 75.000000
3.424149 75.000000
3.426213 75.000000
3.428277 74.000000
3.430341 74.000000
3.432405 74.000000
3.434469 74.000000
3.436533 74.000000
3.438596 74.000000
3.440660 75.000000
3.442724 76.000000
3.444788 76.000000
3.446852 76.000000
3.448916 76.000000
3.450980 76.000000
3.453044 76.000000
3.455108 76.000000
3.457172 76.000000
3.459236 76.000000
3.461300 76.000000
3.463364 76.000000
3.465428 76.000000
3.467492 75.000000
3.469556 75.000000
3.471620 75.000000
3.473684 76.000000
3.475748 76.000000
3.477812 76.000000
3.479876 76.000000
3.481940 76.000000
3.484004 76.000000
3.486068 76.000000
3.488132 76.000000
3.490196 76.000000
3.492260 76.000000
3.494324 76.000000
3.496388 76.000000
3.498452 76.000000
3.500516 76.000000
3.502580 76.000000
3.504644 76.000000
3.506708 76.000000
3.508772 76.000000
3.510836 76.000000
3.512900 76.000000
3.514964 76.000000
3.517028 76.000000
3.519092 76.000000
3.521156 76.000000
3.523220 76.000000
3.525284 76.000000
3.527348 77.000000
3.529412 77.000000
3.531476 77.000000
3.533540 77.000000
3.535604 77.000000
3.537668 77.000000
3.539732 77.000000
3.541796 77.000000
3.543860 77.000000
3.545924 77.000000
3.547988 78.000000
3.550052 78.000000
3.552116 78.000000
3.554180 78.000000
3.556244 78.000000
3.558308 79.000000
3.560372 79.000000
3.562436 79.000000
3.564499 79.000000
3.566563 79.000000
3.568627 79.000000
3.570691 79.000000
3.572755 79.000000
3.574819 79.000000
3.576883 79.000000
3.578947 79.000000
3.581011 79.000000
3.583075 79.000000
3.585139 79.000000
3.587203 79.000000
3.589267 79.000000
3.591331 80.000000
3.593395 81.000000
3.595459 81.000000
3.597523 81.000000
3.599587 81.000000
3.601651 81.000000
3.603715 80.000000
3.605779 80.000000
3.607843 80.000000
3.609907 80.000000
3.611971 80.000000
3.614035 80.000000
3.616099 80.000000
3.618163 81.000000
3.620227 81.000000
3.622291 81.000000
3.624355 82.000000
3.626419 82.000000
3.628483 82.000000
3.630547 82.000000
3.632611 82.000000
3.634675 81.000000
3.636739 81.000000
3.638803 80.000000
3.640867 79.000000
3.642931 80.000000
3.644995 80.000000
3.647059 81.000000
3.649123 81.000000
3.651187 82.000000
3.653251 82.000000
3.655315 82.000000
3.657379 82.000000
3.659443 82.000000
3.661507 82.000000
3.663571 84.000000
3.665635 86.000000
3.667699 88.000000
3.669763 91.000000
3.671827 93.000000
3.673891 93.000000
3.675955 87.000000
3.678019 86.000000
3.680083 86.000000
3.682147 85.000000
3.684211 85.000000
3.686275 85.000000
3.688338 87.000000
3.690402 94.000000
3.692466 97.000000
3.694530 101.000000
3.696594 100.000000
3.698658 98.000000
3.700722 89.000000
3.702786 88.000000
3.704850 87.000000
3.706914 87.000000
3.708978 87.000000
3.711042 87.000000
3.713106 87.000000
3.715170 88.000000
3.717234 89.000000
3.719298 90.000000
3.721362 90.000000
3.723426 90.000000
3.725490 89.000000
3.727554 88.000000
3.729618 88.000000
3.731682 88.000000
3.733746 88.000000
3.735810 88.000000
3.737874 88.000000
3.739938 88.000000
3.742002 88.000000
3.744066 88.000000
3.746130 88.000000
3.748194 88.000000
3.750258 88.000000
3.752322 88.000000
3.754386 88.000000
3.756450 88.000000
3.758514 88.000000
3.760578 88.000000
3.762642 89.000000
3.764706 90.000000
3.766770 90.000000
3.768834 90.000000
3.770898 90.000000
3.772962 90.000000
3.775026 90.000000
3.777090 91.000000
3.779154 91.000000
3.781218 92.000000
3.783282 92.000000
3.785346 93.000000
3.787410 94.000000
3.789474 95.000000
3.791538 96.000000
3.793602 96.000000
3.795666 96.000000
3.797730 96.000000
3.799794 96.000000
3.801858 99.000000
3.803922 101.000000
3.805986 103.000000
3.808050 103.000000
3.810114 103.000000
3.812178 102.000000
3.814241 101.000000
3.816305 101.000000
3.818369 101.000000
3.820433 102.000000
3.822497 105.000000
3.824561 106.000000
3.826625 106.000000
3.828689 107.000000
3.830753 108.000000
3.832817 108.000000
3.834881 108.000000
3.836945 108.000000
3.839009 108.000000
3.841073 112.000000
3.843137 113.000000
3.845201 115.000000
3.847265 116.000000
3.849329 116.000000
3.851393 116.000000
3.853457 116.000000
3.855521 116.000000
3.857585 119.000000
3.859649 123.000000
3.861713 125.000000
3.863777 126.000000
3.865841 127.000000
3.867905 129.000000
3.869969 131.000000
3.872033 132.000000
3.874097 134.000000
3.876161 136.000000
3.878225 138.000000
3.880289 142.000000
3.882353 142.000000
3.884417 143.000000
3.886481 146.000000
3.888545 147.000000
3.890609 149.000000
3.892673 150.000000
3.894737 152.000000
3.896801 153.000000
3.898865 159.000000
3.900929 170.000000
3.902993 178.000000
3.905057 167.000000
3.907121 161.000000
3.909185 162.000000
3.911249 175.000000
3.913313 201.000000
3.915377 217.000000
3.917441 223.000000
3.919505 261.000000
3.921569 475.000000
3.923633 1838.000000
3.925697 2035.000000
3.927761 2322.000000
3.929825 2149.000000
3.931889 1961.000000
3.933953 910.000000
3.936017 514.000000
3.938080 351.000000
3.940144 288.000000
3.942208 270.000000
3.944272 342.000000
3.946336 1013.000000
3.948400 2047.000000
3.950464 2055.000000
3.952528 2320.000000
3.954592 2345.000000
3.956656 1613.000000
3.958720 667.000000
3.960784 412.000000
3.962848 301.000000
3.964912 269.000000
3.966976 189.000000
3.969040 181.000000
3.971104 165.000000
3.973168 148.000000
3.975232 134.000000
3.977296 126.000000
3.979360 118.000000
3.981424 114.000000
3.983488 114.000000
3.985552 109.000000
3.987616 107.000000
3.989680 100.000000
3.991744 100.000000
3.993808 100.000000
3.995872 99.000000
3.997936 99.000000
4.000000 98.000000
4.002064 97.000000
4.004128 96.000000
4.006192 95.000000
4.008256 93.000000
4.010320 92.000000
4.012384 90.000000
4.014448 89.000000
4.016512 88.000000
4.018576 89.000000
4.020640 89.000000
4.022704 90.000000
4.024768 90.000000
4.026832 87.000000
4.028896 87.000000
4.030960 87.000000
4.033024 87.000000
4.035088 87.000000
4.037152 89.000000
4.039216 90.000000
4.041280 92.000000
4.043344 93.000000
4.045408 93.000000
4.047472 89.000000
4.049536 87.000000
4.051600 84.000000
4.053664 83.000000
4.055728 84.000000
4.057792 85.000000
4.059856 87.000000
4.061920 88.000000
4.063983 89.000000
4.066047 90.000000
4.068111 90.000000
4.070175 84.000000
4.072239 82.000000
4.074303 82.000000
4.076367 82.000000
4.078431 82.000000
4.080495 82.000000
4.082559 81.000000
4.084623 81.000000
4.086687 81.000000
4.088751 80.000000
4.090815 80.000000
4.092879 80.000000
4.094943 80.000000
4.097007 80.000000
4.099071 81.000000
4.101135 81.000000
4.103199 81.000000
4.105263 81.000000
4.107327 81.000000
4.109391 80.000000
4.111455 80.000000
4.113519 79.000000
4.115583 79.000000
4.117647 79.000000
4.119711 79.000000
4.121775 79.000000
4.123839 79.000000
4.125903 79.000000
4.127967 79.000000
4.130031 79.000000
4.132095 78.000000
4.134159 78.000000
4.136223 78.000000
4.138287 78.000000
4.140351 78.000000
4.142415 78.000000
4.144479 78.000000
4.146543 78.000000
4.148607 78.000000
4.150671 78.000000
4.152735 78.000000
4.154799 78.000000
4.156863 78.000000
4.158927 78.000000
4.160991 78.000000
4.163055 78.000000
4.165119 78.000000
4.167183 78.000000
4.169247 78.000000
4.171311 78.000000
4.173375 81.000000
4.175439 83.000000
4.177503 86.000000
4.179567 87.000000
4.181631 88.000000
4.183695 88.000000
4.185759 81.000000
4.187822 79.000000
4.189886 79.000000
4.191950 79.000000
4.194014 79.000000
4.196078 79.000000
4.198142 83.000000
4.200206 86.000000
4.202270 87.000000
4.204334 88.000000
4.206398 88.000000
4.208462 82.000000
4.210526 81.000000
4.212590 80.000000
4.214654 80.000000
4.216718 79.000000
4.218782 78.000000
4.220846 76.000000
4.222910 76.000000
4.224974 76.000000
4.227038 76.000000
4.229102 76.000000
4.231166 76.000000
4.233230 77.000000
4.235294 77.000000
4.237358 78.000000
4.239422 78.000000
4.241486 78.000000
4.243550 78.000000
4.245614 77.000000
4.247678 77.000000
4.249742 76.000000
4.251806 75.000000
4.253870 76.000000
4.255934 76.000000
4.257998 76.000000
4.260062 75.000000
4.262126 75.000000
4.264190 75.000000
4.266254 76.000000
4.268318 76.000000
4.270382 76.000000
4.272446 75.000000
4.274510 74.000000
4.276574 74.000000
4.278638 74.000000
4.280702 74.000000
4.282766 74.000000
4.284830 75.000000
4.286894 75.000000
4.288958 75.000000
4.291022 75.000000
4.293086 75.000000
4.295150 75.000000
4.297214 75.000000
4.299278 75.000000
4.301342 74.000000
4.303406 74.000000
4.305470 74.000000
4.307534 74.000000
4.309598 74.000000
4.311662 75.000000
4.313725 75.000000
4.315789 75.000000
4.317853 75.000000
4.319917 75.000000
4.321981 75.000000
4.324045 75.000000
4.326109 75.000000
4.328173 74.000000
4.330237 74.000000
4.332301 75.000000
4.334365 75.000000
4.336429 75.000000
4.338493 75.000000
4.340557 75.000000
4.342621 75.000000
4.344685 74.000000
4.346749 74.000000
4.348813 74.000000
4.350877 74.000000
4.352941 74.000000
4.355005 74.000000
4.357069 74.000000
4.359133 74.000000
4.361197 74.000000
4.363261 74.000000
4.365325 74.000000
4.367389 74.000000
4.369453 74.000000
4.371517 75.000000
4.373581 75.000000
4.375645 75.000000
4.377709 75.000000
4.379773 75.000000
4.381837 75.000000
4.383901 75.000000
4.385965 74.000000
4.388029 74.000000
4.390093 74.000000
4.392157 74.000000
4.394221 74.000000
4.396285 74.000000
4.398349 74.000000
4.400413 74.000000
4.402477 74.000000
4.404541 74.000000
4.406605 75.000000
4.408669 76.000000
4.410733 76.000000
4.412797 75.000000
4.414861 74.000000
4.416925 74.000000
4.418989 74.000000
4.421053 75.000000
4.423117 75.000000
4.425181 75.000000
4.427245 75.000000
4.429309 75.000000
4.431373 75.000000
4.433437 75.000000
4.435501 75.000000
4.437564 75.000000
4.439628 74.000000
4.441692 74.000000
4.443756 75.000000
4.445820 75.000000
4.447884 74.000000
4.449948 74.000000
4.452012 75.000000
4.454076 75.000000
4.456140 75.000000
4.458204 75.000000
4.460268 75.000000
4.462332 75.000000
4.464396 75.000000
4.466460 75.000000
4.468524 75.000000
4.470588 75.000000
4.472652 75.000000
4.474716 75.000000
4.476780 75.000000
4.478844 75.000000
4.480908 75.000000
4.482972 75.000000
4.485036 74.000000
4.487100 75.000000
4.489164 78.000000
4.491228 78.000000
4.493292 75.000000
4.495356 73.000000
4.497420 82.000000
4.499484 83.000000
4.501548 76.000000
4.503612 77.000000
4.505676 75.000000
4.507740 74.000000
4.509804 75.000000
4.511868 75.000000
4.513932 76.000000
4.515996 76.000000
4.518060 75.000000
4.520124 74.000000
4.522188 75.000000
4.524252 76.000000
4.526316 76.000000
4.528380 75.000000
4.530444 76.000000
4.532508 76.000000
4.534572 75.000000
4.536636 76.000000
4.538700 76.000000
4.540764 76.000000
4.542828 75.000000
4.544892 75.000000
4.546956 75.000000
4.549020 75.000000
4.551084 75.000000
4.553148 76.000000
4.555212 76.000000
4.557276 76.000000
4.559340 76.000000
4.561404 76.000000
4.563467 76.000000
4.565531 76.000000
4.567595 75.000000
4.569659 75.000000
4.571723 75.000000
4.573787 75.000000
4.575851 75.000000
4.577915 76.000000
4.579979 76.000000
4.582043 76.000000
4.584107 76.000000
4.586171 76.000000
4.588235 76.000000
4.590299 76.000000
4.592363 76.000000
4.594427 76.000000
4.596491 76.000000
4.598555 75.000000
4.600619 75.000000
4.602683 75.000000
4.604747 75.000000
4.606811 76.000000
4.608875 76.000000
4.610939 76.000000
4.613003 76.000000
4.615067 76.000000
4.617131 76.000000
4.619195 76.000000
4.621259 76.000000
4.623323 76.000000
4.625387 76.000000
4.627451 76.000000
4.629515 76.000000
4.631579 76.000000
4.633643 76.000000
4.635707 76.000000
4.637771 76.000000
4.639835 76.000000
4.641899 76.000000
4.643963 76.000000
4.646027 76.000000
4.648091 76.000000
4.650155 76.000000
4.652219 76.000000
4.654283 76.000000
4.656347 76.000000
4.658411 76.000000
4.660475 76.000000
4.662539 76.000000
4.664603 76.000000
4.666667 76.000000
4.668731 76.000000
4.670795 76.000000
4.672859 76.000000
4.674923 76.000000
4.676987 76.000000
4.679051 76.000000
4.681115 76.000000
4.683179 76.000000
4.685243 76.000000
4.687307 76.000000
4.689370 76.000000
4.691434 76.000000
4.693498 76.000000
4.695562 76.000000
4.697626 76.000000
4.699690 77.000000
4.701754 77.000000
4.703818 77.000000
4.705882 77.000000
4.707946 77.000000
4.710010 77.000000
4.712074 77.000000
4.714138 77.000000
4.716202 77.000000
4.718266 77.000000
4.720330 77.000000
4.722394 77.000000
4.724458 77.000000
4.726522 77.000000
4.728586 77.000000
4.730650 77.000000
4.732714 77.000000
4.734778 77.000000
4.736842 77.000000
4.738906 77.000000
4.740970 77.000000
4.743034 77.000000
4.745098 77.000000
4.747162 77.000000
4.749226 78.000000
4.751290 78.000000
4.753354 78.000000
4.755418 79.000000
4.757482 79.000000
4.759546 79.000000
4.761610 78.000000
4.763674 77.000000
4.765738 79.000000
4.767802 79.000000
4.769866 79.000000
4.771930 79.000000
4.773994 79.000000
4.776058 78.000000
4.778122 78.000000
4.780186 78.000000
4.782250 78.000000
4.784314 78.000000
4.786378 79.000000
4.788442 79.000000
4.790506 79.000000
4.792570 79.000000
4.794634 79.000000
4.796698 79.000000
4.798762 79.000000
4.800826 79.000000
4.802890 79.000000
4.804954 79.000000
4.807018 79.000000
4.809082 79.000000
4.811146 79.000000
4.813209 79.000000
4.815273 79.000000
4.817337 79.000000
4.819401 79.000000
4.821465 79.000000
4.823529 80.000000
4.825593 80.000000
4.827657 80.000000
4.829721 80.000000
4.831785 80.000000
4.833849 80.000000
4.835913 80.000000
4.837977 79.000000
4.840041 79.000000
4.842105 79.000000
4.844169 79.000000
4.846233 79.000000
4.848297 80.000000
4.850361 80.000000
4.852425 80.000000
4.854489 81.000000
4.856553 81.000000
4.858617 82.000000
4.860681 84.000000
4.862745 85.000000
4.864809 85.000000
4.866873 84.000000
4.868937 83.000000
4.871001 82.000000
4.873065 81.000000
4.875129 81.000000
4.877193 81.000000
4.879257 81.000000
4.881321 81.000000
4.883385 82.000000
4.885449 82.000000
4.887513 83.000000
4.889577 83.000000
4.891641 86.000000
4.893705 88.000000
4.895769 90.000000
4.897833 90.000000
4.899897 87.000000
4.901961 86.000000
4.904025 85.000000
4.906089 84.000000
4.908153 84.000000
4.910217 84.000000
4.912281 83.000000
4.914345 83.000000
4.916409 83.000000
4.918473 83.000000
4.920537 83.000000
4.922601 84.000000
4.924665 84.000000
4.926729 85.000000
4.928793 86.000000
4.930857 86.000000
4.932921 86.000000
4.934985 86.000000
4.937049 86.000000
4.939112 86.000000
4.941176 86.000000
4.943240 86.000000
4.945304 86.000000
4.947368 85.000000
4.949432 85.000000
4.951496 85.000000
4.953560 85.000000
4.955624 85.000000
4.957688 85.000000
4.959752 85.000000
4.961816 86.000000
4.963880 86.000000
4.965944 86.000000
4.968008 86.000000
4.970072 86.000000
4.972136 86.000000
4.974200 86.000000
4.976264 86.000000
4.978328 86.000000
4.980392 86.000000
4.982456 87.000000
4.984520 88.000000
4.986584 89.000000
4.988648 89.000000
4.990712 89.000000
4.992776 89.000000
4.994840 88.000000
4.996904 88.000000
4.998968 88.000000
5.001032 88.000000
5.003096 89.000000
5.005160 90.000000
5.007224 90.000000
5.009288 92.000000
5.011352 92.000000
5.013416 92.000000
5.015480 92.000000
5.017544 92.000000
5.019608 92.000000
5.021672 95.000000
5.023736 96.000000
5.025800 97.000000
5.027864 97.000000
5.029928 98.000000
5.031992 98.000000
5.034056 97.000000
5.036120 97.000000
5.038184 96.000000
5.040248 98.000000
5.042312 99.000000
5.044376 100.000000
5.046440 100.000000
5.048504 101.000000
5.050568 102.000000
5.052632 102.000000
5.054696 102.000000
5.056760 102.000000
5.058824 103.000000
5.060888 104.000000
5.062951 105.000000
5.065015 107.000000
5.067079 107.000000
5.069143 103.000000
5.071207 103.000000
5.073271 104.000000
5.075335 110.000000
5.077399 114.000000
5.079463 116.000000
5.081527 120.000000
5.083591 119.000000
5.085655 121.000000
5.087719 121.000000
5.089783 117.000000
5.091847 117.000000
5.093911 117.000000
5.095975 117.000000
5.098039 120.000000
5.100103 122.000000
5.102167 123.000000
5.104231 125.000000
5.106295 131.000000
5.108359 132.000000
5.110423 128.000000
5.112487 129.000000
5.114551 130.000000
5.116615 134.000000
5.118679 143.000000
5.120743 150.000000
5.122807 187.000000
5.124871 367.000000
5.126935 480.000000
5.128999 1026.000000
5.131063 1056.000000
5.133127 1137.000000
5.135191 826.000000
5.137255 444.000000
5.139319 302.000000
5.141383 273.000000
5.143447 203.000000
5.145511 157.000000
5.147575 149.000000
5.149639 145.000000
5.151703 152.000000
5.153767 153.000000
5.155831 192.000000
5.157895 499.000000
5.159959 901.000000
5.162023 1092.000000
5.164087 1108.000000
5.166151 1229.000000
5.168215 873.000000
5.170279 450.000000
5.172343 293.000000
5.174407 262.000000
5.176471 186.000000
5.178535 142.000000
5.180599 130.000000
5.182663 128.000000
5.184727 125.000000
5.186791 122.000000
5.188854 119.000000
5.190918 115.000000
5.192982 111.000000
5.195046 110.000000
5.197110 108.000000
5.199174 107.000000
5.201238 105.000000
5.203302 105.000000
5.205366 104.000000
5.207430 103.000000
5.209494 103.000000
5.211558 102.000000
5.213622 101.000000
5.215686 100.000000
5.217750 102.000000
5.219814 103.000000
5.221878 104.000000
5.223942 105.000000
5.226006 106.000000
5.228070 106.000000
5.230134 107.000000
5.232198 107.000000
5.234262 106.000000
5.236326 105.000000
5.238390 107.000000
5.240454 108.000000
5.242518 110.000000
5.244582 112.000000
5.246646 112.000000
5.248710 112.000000
5.250774 111.000000
5.252838 111.000000
5.254902 112.000000
5.256966 113.000000
5.259030 114.000000
5.261094 119.000000
5.263158 118.000000
5.265222 117.000000
5.267286 119.000000
5.269350 119.000000
5.271414 123.000000
5.273478 124.000000
5.275542 126.000000
5.277606 130.000000
5.279670 159.000000
5.281734 327.000000
5.283798 446.000000
5.285862 415.000000
5.287926 1091.000000
5.289990 1130.000000
5.292054 1238.000000
5.294118 660.000000
5.296182 588.000000
5.298246 326.000000
5.300310 272.000000
5.302374 196.000000
5.304438 160.000000
5.306502 145.000000
5.308566 141.000000
5.310630 138.000000
5.312693 134.000000
5.314757 124.000000
5.316821 122.000000
5.318885 119.000000
5.320949 118.000000
5.323013 121.000000
5.325077 122.000000
5.327141 117.000000
5.329205 117.000000
5.331269 115.000000
5.333333 124.000000
5.335397 141.000000
5.337461 225.000000
5.339525 456.000000
5.341589 436.000000
5.343653 852.000000
5.345717 1030.000000
5.347781 1248.000000
5.349845 1280.000000
5.351909 673.000000
5.353973 537.000000
5.356037 389.000000
5.358101 228.000000
5.360165 149.000000
5.362229 135.000000
5.364293 124.000000
5.366357 120.000000
5.368421 120.000000
5.370485 109.000000
5.372549 104.000000
5.374613 99.000000
5.376677 98.000000
5.378741 96.000000
5.380805 95.000000
5.382869 93.000000
5.384933 92.000000
5.386997 92.000000
5.389061 91.000000
5.391125 91.000000
5.393189 92.000000
5.395253 93.000000
5.397317 93.000000
5.399381 92.000000
5.401445 91.000000
5.403509 90.000000
5.405573 89.000000
5.407637 88.000000
5.409701 87.000000
5.411765 86.000000
5.413829 86.000000
5.415893 86.000000
5.417957 86.000000
5.420021 86.000000
5.422085 86.000000
5.424149 87.000000
5.426213 88.000000
5.428277 89.000000
5.430341 89.000000
5.432405 88.000000
5.434469 86.000000
5.436533 86.000000
5.438596 85.000000
5.440660 85.000000
5.442724 84.000000
5.444788 84.000000
5.446852 84.000000
5.448916 84.000000
5.450980 84.000000
5.453044 84.000000
5.455108 84.000000
5.457172 84.000000
5.459236 84.000000
5.461300 84.000000
5.463364 84.000000
5.465428 83.000000
5.467492 83.000000
5.469556 82.000000
5.471620 82.000000
5.473684 82.000000
5.475748 82.000000
5.477812 82.000000
5.479876 82.000000
5.481940 82.000000
5.484004 82.000000
5.486068 82.000000
5.488132 82.000000
5.490196 82.000000
5.492260 81.000000
5.494324 81.000000
5.496388 81.000000
5.498452 81.000000
5.500516 81.000000
5.502580 81.000000
5.504644 81.000000
5.506708 81.000000
5.508772 81.000000
5.510836 80.000000
5.512900 80.000000
5.514964 80.000000
5.517028 80.000000
5.519092 80.000000
5.521156 80.000000
5.523220 80.000000
5.525284 80.000000
5.527348 80.000000
5.529412 80.000000
5.531476 80.000000
5.533540 80.000000
5.535604 80.000000
5.537668 81.000000
5.539732 81.000000
5.541796 83.000000
5.543860 83.000000
5.545924 83.000000
5.547988 83.000000
5.550052 83.000000
5.552116 83.000000
5.554180 83.000000
5.556244 83.000000
5.558308 82.000000
5.560372 81.000000
5.562436 81.000000
5.564499 81.000000
5.566563 81.000000
5.568627 81.000000
5.570691 81.000000
5.572755 81.000000
5.574819 81.000000
5.576883 81.000000
5.578947 81.000000
5.581011 81.000000
5.583075 81.000000
5.585139 81.000000
5.587203 81.000000
5.589267 81.000000
5.591331 81.000000
5.593395 81.000000
5.595459 81.000000
5.597523 81.000000
5.599587 82.000000
5.601651 83.000000
5.603715 84.000000
5.605779 86.000000
5.607843 86.000000
5.609907 82.000000
5.611971 82.000000
5.614035 82.000000
5.616099 82.000000
5.618163 82.000000
5.620227 81.000000
5.622291 81.000000
5.624355 81.000000
5.626419 81.000000
5.628483 81.000000
5.630547 81.000000
5.632611 81.000000
5.634675 81.000000
5.636739 81.000000
5.638803 81.000000
5.640867 80.000000
5.642931 80.000000
5.644995 80.000000
5.647059 80.000000
5.649123 80.000000
5.651187 80.000000
5.653251 80.000000
5.655315 80.000000
5.657379 80.000000
5.659443 80.000000
5.661507 80.000000
5.663571 80.000000
5.665635 80.000000
5.667699 80.000000
5.669763 80.000000
5.671827 80.000000
5.673891 80.000000
5.675955 80.000000
5.678019 80.000000
5.680083 80.000000
5.682147 80.000000
5.684211 80.000000
5.686275 81.000000
5.688338 81.000000
5.690402 81.000000
5.692466 81.000000
5.694530 81.000000
5.696594 81.000000
5.698658 81.000000
5.700722 81.000000
5.702786 81.000000
5.704850 81.000000
5.706914 81.000000
5.708978 81.000000
5.711042 81.000000
5.713106 81.000000
5.715170 81.000000
5.717234 81.000000
5.719298 81.000000
5.721362 83.000000
5.723426 83.000000
5.725490 83.000000
5.727554 83.000000
5.729618 83.000000
5.731682 83.000000
5.733746 83.000000
5.735810 82.000000
5.737874 82.000000
5.739938 81.000000
5.742002 81.000000
5.744066 81.000000
5.746130 82.000000
5.748194 83.000000
5.750258 83.000000
5.752322 84.000000
5.754386 85.000000
5.756450 85.000000
5.758514 84.000000
5.760578 83.000000
5.762642 82.000000
5.764706 81.000000
5.766770 81.000000
5.768834 81.000000
5.770898 81.000000
5.772962 81.000000
5.775026 84.000000
5.777090 86.000000
5.779154 86.000000
5.781218 84.000000
5.783282 84.000000
5.785346 84.000000
5.787410 84.000000
5.789474 84.000000
5.791538 84.000000
5.793602 81.000000
5.795666 81.000000
5.797730 81.000000
5.799794 81.000000
5.801858 82.000000
5.803922 83.000000
5.805986 83.000000
5.808050 84.000000
5.810114 85.000000
5.812178 86.000000
5.814241 86.000000
5.816305 86.000000
5.818369 85.000000
5.820433 85.000000
5.822497 84.000000
5.824561 84.000000
5.826625 84.000000
5.828689 84.000000
5.830753 84.000000
5.832817 84.000000
5.834881 86.000000
5.836945 86.000000
5.839009 85.000000
5.841073 84.000000
5.843137 84.000000
5.845201 86.000000
5.847265 86.000000
5.849329 86.000000
5.851393 86.000000
5.853457 86.000000
5.855521 86.000000
5.857585 86.000000
5.859649 86.000000
5.861713 86.000000
5.863777 86.000000
5.865841 86.000000
5.867905 87.000000
5.869969 89.000000
5.872033 89.000000
5.874097 89.000000
5.876161 89.000000
5.878225 88.000000
5.880289 88.000000
5.882353 88.000000
5.884417 88.000000
5.886481 89.000000
5.888545 89.000000
5.890609 90.000000
5.892673 90.000000
5.894737 90.000000
5.896801 90.000000
5.898865 90.000000
5.900929 93.000000
5.902993 93.000000
5.905057 93.000000
5.907121 93.000000
5.909185 93.000000
5.911249 93.000000
5.913313 94.000000
5.915377 94.000000
5.917441 94.000000
5.919505 94.000000
5.921569 94.000000
5.923633 97.000000
5.925697 98.000000
5.927761 98.000000
5.929825 98.000000
5.931889 98.000000
5.933953 98.000000
5.936017 99.000000
5.938080 100.000000
5.940144 101.000000
5.942208 102.000000
5.944272 103.000000
5.946336 103.000000
5.948400 102.000000
5.950464 101.000000
5.952528 103.000000
5.954592 104.000000
5.956656 107.000000
5.958720 110.000000
5.960784 119.000000
5.962848 156.000000
5.964912 177.000000
5.966976 392.000000
5.969040 396.000000
5.971104 179.000000
5.973168 140.000000
5.975232 130.000000
5.977296 128.000000
5.979360 122.000000
5.981424 119.000000
5.983488 130.000000
5.985552 158.000000
5.987616 176.000000
5.989680 552.000000
5.991744 666.000000
5.993808 364.000000
5.995872 220.000000
5.997936 234.000000
6.000000 392.000000
6.002064 393.000000
6.004128 189.000000
6.006192 149.000000
6.008256 143.000000
6.010320 140.000000
6.012384 154.000000
6.014448 334.000000
6.016512 411.000000
6.018576 259.000000
6.020640 222.000000
6.022704 531.000000
6.024768 745.000000
6.026832 391.000000
6.028896 222.000000
6.030960 176.000000
6.033024 154.000000
6.035088 148.000000
6.037152 129.000000
6.039216 136.000000
6.041280 152.000000
6.043344 161.000000
6.045408 314.000000
6.047472 714.000000
6.049536 658.000000
6.051600 319.000000
6.053664 337.000000
6.055728 416.000000
6.057792 422.000000
6.059856 200.000000
6.061920 146.000000
6.063983 128.000000
6.066047 126.000000
6.068111 141.000000
6.070175 347.000000
6.072239 361.000000
6.074303 191.000000
6.076367 174.000000
6.078431 286.000000
6.080495 632.000000
6.082559 416.000000
6.084623 181.000000
6.086687 139.000000
6.088751 124.000000
6.090815 120.000000
6.092879 102.000000
6.094943 96.000000
6.097007 100.000000
6.099071 102.000000
6.101135 105.000000
6.103199 167.000000
6.105263 332.000000
6.107327 240.000000
6.109391 115.000000
6.111455 105.000000
6.113519 104.000000
6.115583 92.000000
6.117647 89.000000
6.119711 86.000000
6.121775 86.000000
6.123839 87.000000
6.125903 87.000000
6.127967 82.000000
6.130031 82.000000
6.132095 82.000000
6.134159 83.000000
6.136223 83.000000
6.138287 83.000000
6.140351 82.000000
6.142415 82.000000
6.144479 81.000000
6.146543 80.000000
6.148607 80.000000
6.150671 80.000000
6.152735 80.000000
6.154799 80.000000
6.156863 80.000000
6.158927 80.000000
6.160991 80.000000
6.163055 80.000000
6.165119 79.000000
6.167183 79.000000
6.169247 79.000000
6.171311 79.000000
6.173375 79.000000
6.175439 79.000000
6.177503 79.000000
6.179567 79.000000
6.181631 79.000000
6.183695 79.000000
6.185759 79.000000
6.187822 79.000000
6.189886 79.000000
6.191950 79.000000
6.194014 79.000000
6.196078 78.000000
6.198142 78.000000
6.200206 78.000000
6.202270 78.000000
6.204334 78.000000
6.206398 79.000000
6.208462 79.000000
6.210526 79.000000
6.212590 79.000000
6.214654 79.000000
6.216718 79.000000
6.218782 79.000000
6.220846 79.000000
6.222910 79.000000
6.224974 79.000000
6.227038 78.000000
6.229102 78.000000
6.231166 78.000000
6.233230 78.000000
6.235294 78.000000
6.237358 78.000000
6.239422 78.000000
6.241486 78.000000
6.243550 78.000000
6.245614 78.000000
6.247678 78.000000
6.249742 78.000000
6.251806 78.000000
6.253870 78.000000
6.255934 81.000000
6.257998 81.000000
6.260062 80.000000
6.262126 79.000000
6.264190 79.000000
6.266254 78.000000
6.268318 78.000000
6.270382 78.000000
6.272446 78.000000
6.274510 78.000000
6.276574 78.000000
6.278638 78.000000
6.280702 78.000000
6.282766 78.000000
6.284830 78.000000
6.286894 81.000000
6.288958 81.000000
6.291022 80.000000
6.293086 80.000000
6.295150 79.000000
6.297214 78.000000
6.299278 78.000000
6.301342 78.000000
6.303406 78.000000
6.305470 78.000000
6.307534 78.000000
6.309598 79.000000
6.311662 79.000000
6.313725 80.000000
6.315789 80.000000
6.317853 79.000000
6.319917 78.000000
6.321981 77.000000
6.324045 77.000000
6.326109 77.000000
6.328173 77.000000
6.330237 77.000000
6.332301 76.000000
6.334365 76.000000
6.336429 76.000000
6.338493 76.000000
6.340557 76.000000
6.342621 79.000000
6.344685 79.000000
6.346749 79.000000
6.348813 79.000000
6.350877 78.000000
6.352941 78.000000
6.355005 77.000000
6.357069 77.000000
6.359133 77.000000
6.361197 77.000000
6.363261 77.000000
6.365325 76.000000
6.367389 76.000000
6.369453 76.000000
6.371517 76.000000
6.373581 76.000000
6.375645 76.000000
6.377709 76.000000
6.379773 76.000000
6.381837 76.000000
6.383901 76.000000
6.385965 76.000000
6.388029 76.000000
6.390093 76.000000
6.392157 76.000000
6.394221 76.000000
6.396285 75.000000
6.398349 75.000000
6.400413 75.000000
6.402477 75.000000
6.404541 75.000000
6.406605 75.000000
6.408669 75.000000
6.410733 75.000000
6.412797 75.000000
6.414861 75.000000
6.416925 75.000000
6.418989 75.000000
6.421053 75.000000
6.423117 75.000000
6.425181 75.000000
6.427245 75.000000
6.429309 75.000000
6.431373 75.000000
6.433437 75.000000
6.435501 75.000000
6.437564 75.000000
6.439628 75.000000
6.441692 75.000000
6.443756 75.000000
6.445820 75.000000
6.447884 75.000000
6.449948 75.000000
6.452012 75.000000
6.454076 75.000000
6.456140 75.000000
6.458204 75.000000
6.460268 75.000000
6.462332 75.000000
6.464396 75.000000
6.466460 75.000000
6.468524 75.000000
6.470588 75.000000
6.472652 75.000000
6.474716 75.000000
6.476780 75.000000
6.478844 76.000000
6.480908 76.000000
6.482972 76.000000
6.485036 76.000000
6.487100 76.000000
6.489164 76.000000
6.491228 75.000000
6.493292 75.000000
6.495356 75.000000
6.497420 75.000000
6.499484 75.000000
6.501548 75.000000
6.503612 75.000000
6.505676 75.000000
6.507740 75.000000
6.509804 75.000000
6.511868 75.000000
6.513932 75.000000
6.515996 75.000000
6.518060 75.000000
6.520124 75.000000
6.522188 75.000000
6.524252 75.000000
6.526316 75.000000
6.528380 75.000000
6.530444 75.000000
6.532508 75.000000
6.534572 75.000000
6.536636 75.000000
6.538700 75.000000
6.540764 75.000000
6.542828 75.000000
6.544892 75.000000
6.546956 75.000000
6.549020 74.000000
6.551084 74.000000
6.553148 74.000000
6.555212 74.000000
6.557276 75.000000
6.559340 75.000000
6.561404 75.000000
6.563467 75.000000
6.565531 75.000000
6.567595 75.000000
6.569659 75.000000
6.571723 75.000000
6.573787 75.000000
6.575851 75.000000
6.577915 75.000000
6.579979 75.000000
6.582043 75.000000
6.584107 75.000000
6.586171 75.000000
6.588235 75.000000
6.590299 75.000000
6.592363 75.000000
6.594427 75.000000
6.596491 75.000000
6.598555 75.000000
6.600619 75.000000
6.602683 75.000000
6.604747 75.000000
6.606811 75.000000
6.608875 75.000000
6.610939 75.000000
6.613003 74.000000
6.615067 74.000000
6.617131 74.000000
6.619195 74.000000
6.621259 74.000000
6.623323 75.000000
6.625387 75.000000
6.627451 75.000000
6.629515 75.000000
6.631579 75.000000
6.633643 75.000000
6.635707 75.000000
6.637771 75.000000
6.639835 74.000000
6.641899 74.000000
6.643963 74.000000
6.646027 74.000000
6.648091 74.000000
6.650155 74.000000
6.652219 74.000000
6.654283 74.000000
6.656347 74.000000
6.658411 74.000000
6.660475 74.000000
6.662539 74.000000
6.664603 74.000000
6.666667 74.000000
6.668731 75.000000
6.670795 75.000000
6.672859 75.000000
6.674923 75.000000
6.676987 75.000000
6.679051 75.000000
6.681115 75.000000
6.683179 75.000000
6.685243 75.000000
6.687307 75.000000
6.689370 75.000000
6.691434 75.000000
6.693498 74.000000
6.695562 74.000000
6.697626 74.000000
6.699690 74.000000
6.701754 74.000000
6.703818 74.000000
6.705882 74.000000
6.707946 74.000000
6.710010 74.000000
6.712074 74.000000
6.714138 75.000000
6.716202 75.000000
6.718266 75.000000
6.720330 75.000000
6.722394 75.000000
6.724458 75.000000
6.726522 75.000000
6.728586 75.000000
6.730650 75.000000
6.732714 75.000000
6.734778 75.000000
6.736842 75.000000
6.738906 75.000000
6.740970 75.000000
6.743034 75.000000
6.745098 75.000000
6.747162 75.000000
6.749226 75.000000
6.751290 75.000000
6.753354 74.000000
6.755418 74.000000
6.757482 74.000000
6.759546 74.000000
6.761610 74.000000
6.763674 75.000000
6.765738 75.000000
6.767802 75.000000
6.769866 75.000000
6.771930 75.000000
6.773994 75.000000
6.776058 75.000000
6.778122 75.000000
6.780186 74.000000
6.782250 74.000000
6.784314 74.000000
6.786378 74.000000
6.788442 74.000000
6.790506 74.000000
6.792570 74.000000
6.794634 74.000000
6.796698 74.000000
6.798762 74.000000
6.800826 74.000000
6.802890 74.000000
6.804954 74.000000
6.807018 74.000000
6.809082 74.000000
6.811146 74.000000
6.813209 74.000000
6.815273 73.000000
6.817337 73.000000
6.819401 73.000000
6.821465 73.000000
6.823529 73.000000
6.825593 73.000000
6.827657 73.000000
6.829721 73.000000
6.831785 73.000000
6.833849 73.000000
6.835913 73.000000
6.837977 73.000000
6.840041 73.000000
6.842105 73.000000
6.844169 74.000000
6.846233 74.000000
6.848297 75.000000
6.850361 75.000000
6.852425 75.000000
6.854489 75.000000
6.856553 75.000000
6.858617 75.000000
6.860681 75.000000
6.862745 75.000000
6.864809 74.000000
6.866873 73.000000
6.868937 73.000000
6.871001 73.000000
6.873065 73.000000
6.875129 73.000000
6.877193 74.000000
6.879257 74.000000
6.881321 74.000000
6.883385 74.000000
6.885449 74.000000
6.887513 74.000000
6.889577 74.000000
6.891641 74.000000
6.893705 74.000000
6.895769 74.000000
6.897833 74.000000
6.899897 74.000000
6.901961 74.000000
6.904025 74.000000
6.906089 74.000000
6.908153 73.000000
6.910217 73.000000
6.912281 73.000000
6.914345 73.000000
6.916409 73.000000
6.918473 73.000000
6.920537 73.000000
6.922601 73.000000
6.924665 73.000000
6.926729 73.000000
6.928793 74.000000
6.930857 75.000000
6.932921 75.000000
6.934985 75.000000
6.937049 75.000000
6.939112 75.000000
6.941176 75.000000
6.943240 74.000000
6.945304 74.000000
6.947368 74.000000
6.949432 74.000000
6.951496 74.000000
6.953560 74.000000
6.955624 74.000000
6.957688 74.000000
6.959752 74.000000
6.961816 74.000000
6.963880 74.000000
6.965944 74.000000
6.968008 74.000000
6.970072 74.000000
6.972136 74.000000
6.974200 74.000000
6.976264 74.000000
6.978328 74.000000
6.980392 74.000000
6.982456 74.000000
6.984520 74.000000
6.986584 74.000000
6.988648 74.000000
6.990712 74.000000
6.992776 74.000000
6.994840 74.000000
6.996904 74.000000
6.998968 74.000000
7.001032 74.000000
7.003096 75.000000
7.005160 75.000000
7.007224 75.000000
7.009288 75.000000
7.011352 75.000000
7.013416 75.000000
7.015480 75.000000
7.017544 75.000000
7.019608 74.000000
7.021672 74.000000
7.023736 74.000000
7.025800 74.000000
7.027864 75.000000
7.029928 75.000000
7.031992 74.000000
7.034056 73.000000
7.036120 75.000000
7.038184 75.000000
7.040248 75.000000
7.042312 75.000000
7.044376 75.000000
7.046440 74.000000
7.048504 74.000000
7.050568 74.000000
7.052632 74.000000
7.054696 74.000000
7.056760 74.000000
7.058824 74.000000
7.060888 74.000000
7.062951 74.000000
7.065015 74.000000
7.067079 74.000000
7.069143 74.000000
7.071207 74.000000
7.073271 74.000000
7.075335 74.000000
7.077399 74.000000
7.079463 74.000000
7.081527 74.000000
7.083591 75.000000
7.085655 75.000000
7.087719 75.000000
7.089783 73.000000
7.091847 73.000000
7.093911 73.000000
7.095975 73.000000
7.098039 73.000000
7.100103 74.000000
7.102167 74.000000
7.104231 74.000000
7.106295 74.000000
7.108359 74.000000
7.110423 74.000000
7.112487 74.000000
7.114551 74.000000
7.116615 74.000000
7.118679 74.000000
7.120743 74.000000
7.122807 74.000000
7.124871 74.000000
7.126935 74.000000
7.128999 74.000000
7.131063 74.000000
7.133127 73.000000
7.135191 73.000000
7.137255 74.000000
7.139319 74.000000
7.141383 74.000000
7.143447 74.000000
7.145511 74.000000
7.147575 74.000000
7.149639 74.000000
7.151703 74.000000
7.153767 74.000000
7.155831 74.000000
7.157895 74.000000
7.159959 74.000000
7.162023 74.000000
7.164087 74.000000
7.166151 74.000000
7.168215 74.000000
7.170279 74.000000
7.172343 74.000000
7.174407 74.000000
7.176471 74.000000
7.178535 74.000000
7.180599 74.000000
7.182663 74.000000
7.184727 74.000000
7.186791 74.000000
7.188854 74.000000
7.190918 74.000000
7.192982 74.000000
7.195046 74.000000
7.197110 74.000000
7.199174 74.000000
7.201238 75.000000
7.203302 75.000000
7.205366 75.000000
7.207430 75.000000
7.209494 75.000000
7.211558 75.000000
7.213622 75.000000
7.215686 75.000000
7.217750 75.000000
7.219814 75.000000
7.221878 74.000000
7.223942 74.000000
7.226006 74.000000
7.228070 74.000000
7.230134 74.000000
7.232198 75.000000
7.234262 75.000000
7.236326 75.000000
7.238390 75.000000
7.240454 75.000000
7.242518 75.000000
7.244582 75.000000
7.246646 75.000000
7.248710 75.000000
7.250774 75.000000
7.252838 75.000000
7.254902 75.000000
7.256966 75.000000
7.259030 75.000000
7.261094 76.000000
7.263158 78.000000
7.265222 105.000000
7.267286 169.000000
7.269350 107.000000
7.271414 84.000000
7.273478 80.000000
7.275542 77.000000
7.277606 77.000000
7.279670 76.000000
7.281734 76.000000
7.283798 75.000000
7.285862 75.000000
7.287926 75.000000
7.289990 75.000000
7.292054 75.000000
7.294118 74.000000
7.296182 74.000000
7.298246 74.000000
7.300310 74.000000
7.302374 74.000000
7.304438 73.000000
7.306502 73.000000
7.308566 73.000000
7.310630 73.000000
7.312693 73.000000
7.314757 73.000000
7.316821 73.000000
7.318885 73.000000
7.320949 73.000000
7.323013 73.000000
7.325077 73.000000
7.327141 73.000000
7.329205 73.000000
7.331269 73.000000
7.333333 73.000000
7.335397 74.000000
7.337461 74.000000
7.339525 74.000000
7.341589 74.000000
7.343653 74.000000
7.345717 74.000000
7.347781 74.000000
7.349845 74.000000
7.351909 74.000000
7.353973 74.000000
7.356037 76.000000
7.358101 76.000000
7.360165 74.000000
7.362229 74.000000
7.364293 74.000000
7.366357 74.000000
7.368421 74.000000
7.370485 73.000000
7.372549 73.000000
7.374613 73.000000
7.376677 73.000000
7.378741 73.000000
7.380805 73.000000
7.382869 73.000000
7.384933 73.000000
7.386997 73.000000
7.389061 73.000000
7.391125 73.000000
7.393189 73.000000
7.395253 73.000000
7.397317 73.000000
7.399381 73.000000
7.401445 73.000000
7.403509 73.000000
7.405573 73.000000
7.407637 73.000000
7.409701 73.000000
7.411765 73.000000
7.413829 73.000000
7.415893 73.000000
7.417957 73.000000
7.420021 73.000000
7.422085 73.000000
7.424149 73.000000
7.426213 73.000000
7.428277 73.000000
7.430341 74.000000
7.432405 74.000000
7.434469 74.000000
7.436533 74.000000
7.438596 74.000000
7.440660 74.000000
7.442724 74.000000
7.444788 74.000000
7.446852 74.000000
7.448916 74.000000
7.450980 73.000000
7.453044 73.000000
7.455108 73.000000
7.457172 73.000000
7.459236 73.000000
7.461300 73.000000
7.463364 73.000000
7.465428 73.000000
7.467492 73.000000
7.469556 73.000000
7.471620 73.000000
7.473684 73.000000
7.475748 73.000000
7.477812 73.000000
7.479876 73.000000
7.481940 73.000000
7.484004 73.000000
7.486068 73.000000
7.488132 73.000000
7.490196 73.000000
7.492260 73.000000
7.494324 73.000000
7.496388 73.000000
7.498452 74.000000
7.500516 74.000000
7.502580 74.000000
7.504644 74.000000
7.506708 73.000000
7.508772 73.000000
7.510836 72.000000
7.512900 72.000000
7.514964 72.000000
7.517028 72.000000
7.519092 72.000000
7.521156 73.000000
7.523220 73.000000
7.525284 73.000000
7.527348 73.000000
7.529412 73.000000
7.531476 73.000000
7.533540 73.000000
7.535604 73.000000
7.537668 73.000000
7.539732 73.000000
7.541796 73.000000
7.543860 73.000000
7.545924 73.000000
7.547988 73.000000
7.550052 73.000000
7.552116 75.000000
7.554180 75.000000
7.556244 75.000000
7.558308 74.000000
7.560372 73.000000
7.562436 73.000000
7.564499 73.000000
7.566563 73.000000
7.568627 73.000000
7.570691 73.000000
7.572755 73.000000
7.574819 73.000000
7.576883 73.000000
7.578947 73.000000
7.581011 73.000000
7.583075 73.000000
7.585139 74.000000
7.587203 74.000000
7.589267 74.000000
7.591331 74.000000
7.593395 74.000000
7.595459 74.000000
7.597523 74.000000
7.599587 73.000000
7.601651 73.000000
7.603715 73.000000
7.605779 73.000000
7.607843 73.000000
7.609907 73.000000
7.611971 73.000000
7.614035 73.000000
7.616099 73.000000
7.618163 73.000000
7.620227 73.000000
7.622291 73.000000
7.624355 73.000000
7.626419 73.000000
7.628483 73.000000
7.630547 73.000000
7.632611 73.000000
7.634675 73.000000
7.636739 74.000000
7.638803 74.000000
7.640867 74.000000
7.642931 72.000000
7.644995 72.000000
7.647059 72.000000
7.649123 72.000000
7.651187 72.000000
7.653251 72.000000
7.655315 72.000000
7.657379 72.000000
7.659443 72.000000
7.661507 73.000000
7.663571 73.000000
7.665635 74.000000
7.667699 74.000000
7.669763 74.000000
7.671827 74.000000
7.673891 74.000000
7.675955 73.000000
7.678019 73.000000
7.680083 73.000000
7.682147 73.000000
7.684211 73.000000
7.686275 73.000000
7.688338 73.000000
7.690402 73.000000
7.692466 73.000000
7.694530 73.000000
7.696594 73.000000
7.698658 73.000000
7.700722 73.000000
7.702786 73.000000
7.704850 73.000000
7.706914 73.000000
7.708978 73.000000
7.711042 73.000000
7.713106 73.000000
7.715170 73.000000
7.717234 73.000000
7.719298 73.000000
7.721362 73.000000
7.723426 73.000000
7.725490 73.000000
7.727554 73.000000
7.729618 73.000000
7.731682 73.000000
7.733746 73.000000
7.735810 73.000000
7.737874 73.000000
7.739938 73.000000
7.742002 73.000000
7.744066 73.000000
7.746130 73.000000
7.748194 73.000000
7.750258 73.000000
7.752322 73.000000
7.754386 73.000000
7.756450 73.000000
7.758514 73.000000
7.760578 73.000000
7.762642 73.000000
7.764706 73.000000
7.766770 73.000000
7.768834 73.000000
7.770898 73.000000
7.772962 73.000000
7.775026 73.000000
7.777090 73.000000
7.779154 73.000000
7.781218 73.000000
7.783282 73.000000
7.785346 73.000000
7.787410 73.000000
7.789474 73.000000
7.791538 73.000000
7.793602 73.000000
7.795666 73.000000
7.797730 73.000000
7.799794 73.000000
7.801858 73.000000
7.803922 73.000000
7.805986 73.000000
7.808050 73.000000
7.810114 73.000000
7.812178 73.000000
7.814241 73.000000
7.816305 73.000000
7.818369 73.000000
7.820433 73.000000
7.822497 73.000000
7.824561 73.000000
7.826625 73.000000
7.828689 73.000000
7.830753 73.000000
7.832817 73.000000
7.834881 73.000000
7.836945 73.000000
7.839009 73.000000
7.841073 73.000000
7.843137 73.000000
7.845201 73.000000
7.847265 73.000000
7.849329 73.000000
7.851393 73.000000
7.853457 73.000000
7.855521 73.000000
7.857585 73.000000
7.859649 73.000000
7.861713 73.000000
7.863777 73.000000
7.865841 73.000000
7.867905 73.000000
7.869969 73.000000
7.872033 73.000000
7.874097 73.000000
7.876161 73.000000
7.878225 73.000000
7.880289 73.000000
7.882353 73.000000
7.884417 73.000000
7.886481 73.000000
7.888545 73.000000
7.890609 73.000000
7.892673 72.000000
7.894737 72.000000
7.896801 72.000000
7.898865 72.000000
7.900929 72.000000
7.902993 73.000000
7.905057 73.000000
7.907121 73.000000
7.909185 73.000000
7.911249 73.000000
7.913313 73.000000
7.915377 73.000000
7.917441 73.000000
7.919505 73.000000
7.921569 73.000000
7.923633 72.000000
7.925697 72.000000
7.927761 72.000000
7.929825 72.000000
7.931889 72.000000
7.933953 72.000000
7.936017 72.000000
7.938080 72.000000
7.940144 72.000000
7.942208 72.000000
7.944272 72.000000
7.946336 72.000000
7.948400 72.000000
7.950464 72.000000
7.952528 72.000000
7.954592 72.000000
7.956656 72.000000
7.958720 72.000000
7.960784 72.000000
7.962848 72.000000
7.964912 72.000000
7.966976 72.000000
7.969040 72.000000
7.971104 72.000000
7.973168 72.000000
7.975232 72.000000
7.977296 72.000000
7.979360 72.000000
7.981424 72.000000
7.983488 73.000000
7.985552 73.000000
7.987616 73.000000
7.989680 73.000000
7.991744 73.000000
7.993808 73.000000
7.995872 73.000000
7.997936 73.000000
8.000000 73.000000
8.002064 73.000000
8.004128 73.000000
8.006192 73.000000
8.008256 73.000000
8.010320 73.000000
8.012384 73.000000
8.014448 73.000000
8.016512 73.000000
8.018576 73.000000
8.020640 73.000000
8.022704 73.000000
8.024768 73.000000
8.026832 73.000000
8.028896 73.000000
8.030960 73.000000
8.033024 73.000000
8.035088 73.000000
8.037152 73.000000
8.039216 73.000000
8.041280 73.000000
8.043344 73.000000
8.045408 73.000000
8.047472 73.000000
8.049536 73.000000
8.051600 73.000000
8.053664 72.000000
8.055728 72.000000
8.057792 72.000000
8.059856 72.000000
8.061920 72.000000
8.063983 72.000000
8.066047 72.000000
8.068111 72.000000
8.070175 72.000000
8.072239 72.000000
8.074303 73.000000
8.076367 73.000000
8.078431 73.000000
8.080495 73.000000
8.082559 73.000000
8.084623 73.000000
8.086687 73.000000
8.088751 73.000000
8.090815 73.000000
8.092879 73.000000
8.094943 73.000000
8.097007 73.000000
8.099071 73.000000
8.101135 73.000000
8.103199 73.000000
8.105263 73.000000
8.107327 73.000000
8.109391 73.000000
8.111455 73.000000
8.113519 73.000000
8.115583 73.000000
8.117647 73.000000
8.119711 73.000000
8.121775 73.000000
8.123839 73.000000
8.125903 73.000000
8.127967 73.000000
8.130031 73.000000
8.132095 73.000000
8.134159 73.000000
8.136223 73.000000
8.138287 73.000000
8.140351 73.000000
8.142415 73.000000
8.144479 73.000000
8.146543 73.000000
8.148607 73.000000
8.150671 73.000000
8.152735 73.000000
8.154799 72.000000
8.156863 72.000000
8.158927 72.000000
8.160991 72.000000
8.163055 72.000000
8.165119 73.000000
8.167183 73.000000
8.169247 73.000000
8.171311 73.000000
8.173375 73.000000
8.175439 73.000000
8.177503 73.000000
8.179567 73.000000
8.181631 73.000000
8.183695 73.000000
8.185759 72.000000
8.187822 72.000000
8.189886 72.000000
8.191950 72.000000
8.194014 72.000000
8.196078 72.000000
8.198142 72.000000
8.200206 72.000000
8.202270 72.000000
8.204334 72.000000
8.206398 73.000000
8.208462 73.000000
8.210526 73.000000
8.212590 74.000000
8.214654 74.000000
8.216718 74.000000
8.218782 74.000000
8.220846 74.000000
8.222910 74.000000
8.224974 74.000000
8.227038 73.000000
8.229102 73.000000
8.231166 73.000000
8.233230 73.000000
8.235294 73.000000
8.237358 72.000000
8.239422 72.000000
8.241486 72.000000
8.243550 72.000000
8.245614 72.000000
8.247678 72.000000
8.249742 72.000000
8.251806 72.000000
8.253870 72.000000
8.255934 73.000000
8.257998 73.000000
8.260062 73.000000
8.262126 73.000000
8.264190 73.000000
8.266254 73.000000
8.268318 73.000000
8.270382 73.000000
8.272446 73.000000
8.274510 73.000000
8.276574 73.000000
8.278638 73.000000
8.280702 73.000000
8.282766 73.000000
8.284830 73.000000
8.286894 73.000000
8.288958 73.000000
8.291022 73.000000
8.293086 73.000000
8.295150 73.000000
8.297214 73.000000
8.299278 73.000000
8.301342 73.000000
8.303406 73.000000
8.305470 73.000000
8.307534 73.000000
8.309598 73.000000
8.311662 73.000000
8.313725 73.000000
8.315789 73.000000
8.317853 73.000000
8.319917 73.000000
8.321981 73.000000
8.324045 73.000000
8.326109 73.000000
8.328173 73.000000
8.330237 73.000000
8.332301 73.000000
8.334365 73.000000
8.336429 73.000000
8.338493 73.000000
8.340557 73.000000
8.342621 73.000000
8.344685 73.000000
8.346749 73.000000
8.348813 73.000000
8.350877 73.000000
8.352941 73.000000
8.355005 73.000000
8.357069 73.000000
8.359133 72.000000
8.361197 72.000000
8.363261 72.000000
8.365325 72.000000
8.367389 73.000000
8.369453 73.000000
8.371517 73.000000
8.373581 73.000000
8.375645 73.000000
8.377709 73.000000
8.379773 73.000000
8.381837 73.000000
8.383901 73.000000
8.385965 73.000000
8.388029 73.000000
8.390093 73.000000
8.392157 73.000000
8.394221 73.000000
8.396285 73.000000
8.398349 73.000000
8.400413 73.000000
8.402477 73.000000
8.404541 73.000000
8.406605 73.000000
8.408669 73.000000
8.410733 73.000000
8.412797 73.000000
8.414861 73.000000
8.416925 73.000000
8.418989 73.000000
8.421053 73.000000
8.423117 73.000000
8.425181 73.000000
8.427245 73.000000
8.429309 73.000000
8.431373 73.000000
8.433437 72.000000
8.435501 72.000000
8.437564 72.000000
8.439628 72.000000
8.441692 72.000000
8.443756 73.000000
8.445820 73.000000
8.447884 73.000000
8.449948 73.000000
8.452012 73.000000
8.454076 73.000000
8.456140 73.000000
8.458204 73.000000
8.460268 73.000000
8.462332 73.000000
8.464396 73.000000
8.466460 73.000000
8.468524 73.000000
8.470588 73.000000
8.472652 73.000000
8.474716 73.000000
8.476780 73.000000
8.478844 73.000000
8.480908 73.000000
8.482972 73.000000
8.485036 73.000000
8.487100 73.000000
8.489164 72.000000
8.491228 72.000000
8.493292 72.000000
8.495356 72.000000
8.497420 72.000000
8.499484 72.000000
8.501548 72.000000
8.503612 72.000000
8.505676 72.000000
8.507740 72.000000
8.509804 73.000000
8.511868 73.000000
8.513932 73.000000
8.515996 73.000000
8.518060 73.000000
8.520124 73.000000
8.522188 73.000000
8.524252 73.000000
8.526316 73.000000
8.528380 73.000000
8.530444 73.000000
8.532508 73.000000
8.534572 73.000000
8.536636 73.000000
8.538700 73.000000
8.540764 73.000000
8.542828 73.000000
8.544892 73.000000
8.546956 73.000000
8.549020 72.000000
8.551084 72.000000
8.553148 72.000000
8.555212 72.000000
8.557276 72.000000
8.559340 73.000000
8.561404 73.000000
8.563467 73.000000
8.565531 73.000000
8.567595 73.000000
8.569659 73.000000
8.571723 73.000000
8.573787 73.000000
8.575851 73.000000
8.577915 73.000000
8.579979 73.000000
8.582043 73.000000
8.584107 73.000000
8.586171 73.000000
8.588235 73.000000
8.590299 73.000000
8.592363 73.000000
8.594427 73.000000
8.596491 73.000000
8.598555 73.000000
8.600619 73.000000
8.602683 73.000000
8.604747 73.000000
8.606811 73.000000
8.608875 73.000000
8.610939 73.000000
8.613003 73.000000
8.615067 73.000000
8.617131 73.000000
8.619195 73.000000
8.621259 73.000000
8.623323 73.000000
8.625387 73.000000
8.627451 73.000000
8.629515 72.000000
8.631579 72.000000
8.633643 72.000000
8.635707 72.000000
8.637771 72.000000
8.639835 72.000000
8.641899 72.000000
8.643963 72.000000
8.646027 72.000000
8.648091 72.000000
8.650155 72.000000
8.652219 72.000000
8.654283 72.000000
8.656347 72.000000
8.658411 72.000000
8.660475 73.000000
8.662539 73.000000
8.664603 73.000000
8.666667 73.000000
8.668731 73.000000
8.670795 73.000000
8.672859 73.000000
8.674923 73.000000
8.676987 73.000000
8.679051 73.000000
8.681115 72.000000
8.683179 72.000000
8.685243 72.000000
8.687307 72.000000
8.689370 72.000000
8.691434 72.000000
8.693498 72.000000
8.695562 72.000000
8.697626 72.000000
8.699690 72.000000
8.701754 72.000000
8.703818 72.000000
8.705882 72.000000
8.707946 72.000000
8.710010 72.000000
8.712074 72.000000
8.714138 72.000000
8.716202 72.000000
8.718266 72.000000
8.720330 73.000000
8.722394 73.000000
8.724458 73.000000
8.726522 73.000000
8.728586 73.000000
8.730650 73.000000
8.732714 73.000000
8.734778 73.000000
8.736842 73.000000
8.738906 73.000000
8.740970 72.000000
8.743034 72.000000
8.745098 72.000000
8.747162 72.000000
8.749226 72.000000
8.751290 73.000000
8.753354 73.000000
8.755418 73.000000
8.757482 73.000000
8.759546 73.000000
8.761610 73.000000
8.763674 73.000000
8.765738 73.000000
8.767802 73.000000
8.769866 73.000000
8.771930 73.000000
8.773994 73.000000
8.776058 73.000000
8.778122 73.000000
8.780186 73.000000
8.782250 73.000000
8.784314 73.000000
8.786378 73.000000
8.788442 73.000000
8.790506 73.000000
8.792570 73.000000
8.794634 73.000000
8.796698 73.000000
8.798762 73.000000
8.800826 73.000000
8.802890 72.000000
8.804954 72.000000
8.807018 72.000000
8.809082 72.000000
8.811146 72.000000
8.813209 72.000000
8.815273 72.000000
8.817337 72.000000
8.819401 72.000000
8.821465 72.000000
8.823529 72.000000
8.825593 72.000000
8.827657 72.000000
8.829721 72.000000
8.831785 72.000000
8.833849 72.000000
8.835913 72.000000
8.837977 72.000000
8.840041 72.000000
8.842105 72.000000
8.844169 72.000000
8.846233 72.000000
8.848297 72.000000
8.850361 72.000000
8.852425 72.000000
8.854489 72.000000
8.856553 72.000000
8.858617 72.000000
8.860681 72.000000
8.862745 73.000000
8.864809 73.000000
8.866873 73.000000
8.868937 73.000000
8.871001 73.000000
8.873065 73.000000
8.875129 73.000000
8.877193 73.000000
8.879257 73.000000
8.881321 73.000000
8.883385 73.000000
8.885449 73.000000
8.887513 73.000000
8.889577 73.000000
8.891641 73.000000
8.893705 73.000000
8.895769 73.000000
8.897833 73.000000
8.899897 73.000000
8.901961 73.000000
8.904025 73.000000
8.906089 73.000000
8.908153 73.000000
8.910217 73.000000
8.912281 72.000000
8.914345 72.000000
8.916409 72.000000
8.918473 72.000000
8.920537 72.000000
8.922601 72.000000
8.924665 72.000000
8.926729 72.000000
8.928793 72.000000
8.930857 72.000000
8.932921 73.000000
8.934985 73.000000
8.937049 73.000000
8.939112 73.000000
8.941176 73.000000
8.943240 73.000000
8.945304 73.000000
8.947368 73.000000
8.949432 73.000000
8.951496 73.000000
8.953560 73.000000
8.955624 73.000000
8.957688 73.000000
8.959752 73.000000
8.961816 73.000000
8.963880 73.000000
8.965944 73.000000
8.968008 73.000000
8.970072 72.000000
8.972136 72.000000
8.974200 72.000000
8.976264 72.000000
8.978328 72.000000
8.980392 72.000000
8.982456 72.000000
8.984520 73.000000
8.986584 73.000000
8.988648 73.000000
8.990712 73.000000
8.992776 73.000000
8.994840 73.000000
8.996904 73.000000
8.998968 73.000000
9.001032 73.000000
9.003096 72.000000
9.005160 72.000000
9.007224 72.000000
9.009288 72.000000
9.011352 72.000000
9.013416 72.000000
9.015480 72.000000
9.017544 72.000000
9.019608 72.000000
9.021672 72.000000
9.023736 73.000000
9.025800 73.000000
9.027864 73.000000
9.029928 73.000000
9.031992 73.000000
9.034056 73.000000
9.036120 71.000000
9.038184 73.000000
9.040248 73.000000
9.042312 73.000000
9.044376 72.000000
9.046440 72.000000
9.048504 72.000000
9.050568 72.000000
9.052632 72.000000
9.054696 72.000000
9.056760 72.000000
9.058824 72.000000
9.060888 72.000000
9.062951 72.000000
9.065015 72.000000
9.067079 72.000000
9.069143 72.000000
9.071207 72.000000
9.073271 72.000000
9.075335 72.000000
9.077399 72.000000
9.079463 72.000000
9.081527 72.000000
9.083591 72.000000
9.085655 72.000000
9.087719 72.000000
9.089783 72.000000
9.091847 72.000000
9.093911 72.000000
9.095975 72.000000
9.098039 73.000000
9.100103 73.000000
9.102167 73.000000
9.104231 73.000000
9.106295 73.000000
9.108359 73.000000
9.110423 73.000000
9.112487 73.000000
9.114551 73.000000
9.116615 72.000000
9.118679 72.000000
9.120743 72.000000
9.122807 72.000000
9.124871 72.000000
9.126935 72.000000
9.128999 72.000000
9.131063 72.000000
9.133127 72.000000
9.135191 72.000000
9.137255 72.000000
9.139319 72.000000
9.141383 72.000000
9.143447 72.000000
9.145511 72.000000
9.147575 72.000000
9.149639 72.000000
9.151703 72.000000
9.153767 72.000000
9.155831 72.000000
9.157895 72.000000
9.159959 72.000000
9.162023 72.000000
9.164087 72.000000
9.166151 72.000000
9.168215 72.000000
9.170279 72.000000
9.172343 72.000000
9.174407 73.000000
9.176471 73.000000
9.178535 73.000000
9.180599 73.000000
9.182663 73.000000
9.184727 73.000000
9.186791 73.000000
9.188854 74.000000
9.190918 74.000000
9.192982 72.000000
9.195046 72.000000
9.197110 72.000000
9.199174 72.000000
9.201238 72.000000
9.203302 72.000000
9.205366 72.000000
9.207430 72.000000
9.209494 72.000000
9.211558 72.000000
9.213622 72.000000
9.215686 72.000000
9.217750 72.000000
9.219814 72.000000
9.221878 72.000000
9.223942 72.000000
9.226006 72.000000
9.228070 72.000000
9.230134 72.000000
9.232198 72.000000
9.234262 72.000000
9.236326 72.000000
9.238390 72.000000
9.240454 72.000000
9.242518 72.000000
9.244582 73.000000
9.246646 73.000000
9.248710 73.000000
9.250774 73.000000
9.252838 73.000000
9.254902 73.000000
9.256966 73.000000
9.259030 73.000000
9.261094 73.000000
9.263158 72.000000
9.265222 72.000000
9.267286 72.000000
9.269350 72.000000
9.271414 72.000000
9.273478 72.000000
9.275542 72.000000
9.277606 72.000000
9.279670 72.000000
9.281734 72.000000
9.283798 72.000000
9.285862 72.000000
9.287926 72.000000
9.289990 72.000000
9.292054 72.000000
9.294118 73.000000
9.296182 73.000000
9.298246 73.000000
9.300310 73.000000
9.302374 73.000000
9.304438 73.000000
9.306502 73.000000
9.308566 73.000000
9.310630 73.000000
9.312693 73.000000
9.314757 73.000000
9.316821 73.000000
9.318885 72.000000
9.320949 72.000000
9.323013 72.000000
9.325077 72.000000
9.327141 72.000000
9.329205 72.000000
9.331269 72.000000
9.333333 72.000000
9.335397 72.000000
9.337461 72.000000
9.339525 72.000000
9.341589 72.000000
9.343653 72.000000
9.345717 72.000000
9.347781 72.000000
9.349845 72.000000
9.351909 72.000000
9.353973 72.000000
9.356037 72.000000
9.358101 72.000000
9.360165 72.000000
9.362229 72.000000
9.364293 72.000000
9.366357 72.000000
9.368421 72.000000
9.370485 72.000000
9.372549 72.000000
9.374613 72.000000
9.376677 72.000000
9.378741 72.000000
9.380805 72.000000
9.382869 72.000000
9.384933 72.000000
9.386997 72.000000
9.389061 72.000000
9.391125 72.000000
9.393189 72.000000
9.395253 72.000000
9.397317 72.000000
9.399381 72.000000
9.401445 73.000000
9.403509 73.000000
9.405573 73.000000
9.407637 73.000000
9.409701 73.000000
9.411765 73.000000
9.413829 73.000000
9.415893 73.000000
9.417957 73.000000
9.420021 73.000000
9.422085 73.000000
9.424149 73.000000
9.426213 73.000000
9.428277 73.000000
9.430341 73.000000
9.432405 73.000000
9.434469 73.000000
9.436533 73.000000
9.438596 73.000000
9.440660 73.000000
9.442724 73.000000
9.444788 73.000000
9.446852 73.000000
9.448916 73.000000
9.450980 73.000000
9.453044 73.000000
9.455108 73.000000
9.457172 73.000000
9.459236 73.000000
9.461300 73.000000
9.463364 73.000000
9.465428 73.000000
9.467492 73.000000
9.469556 73.000000
9.471620 73.000000
9.473684 73.000000
9.475748 73.000000
9.477812 73.000000
9.479876 73.000000
9.481940 72.000000
9.484004 72.000000
9.486068 72.000000
9.488132 72.000000
9.490196 72.000000
9.492260 72.000000
9.494324 72.000000
9.496388 72.000000
9.498452 72.000000
9.500516 71.000000
9.502580 71.000000
9.504644 71.000000
9.506708 71.000000
9.508772 71.000000
9.510836 72.000000
9.512900 72.000000
9.514964 72.000000
9.517028 72.000000
9.519092 72.000000
9.521156 72.000000
9.523220 72.000000
9.525284 72.000000
9.527348 72.000000
9.529412 72.000000
9.531476 72.000000
9.533540 72.000000
9.535604 72.000000
9.537668 72.000000
9.539732 72.000000
9.541796 72.000000
9.543860 72.000000
9.545924 72.000000
9.547988 72.000000
9.550052 72.000000
9.552116 72.000000
9.554180 72.000000
9.556244 72.000000
9.558308 72.000000
9.560372 72.000000
9.562436 72.000000
9.564499 72.000000
9.566563 72.000000
9.568627 72.000000
9.570691 72.000000
9.572755 72.000000
9.574819 72.000000
9.576883 72.000000
9.578947 72.000000
9.581011 72.000000
9.583075 72.000000
9.585139 72.000000
9.587203 72.000000
9.589267 72.000000
9.591331 72.000000
9.593395 73.000000
9.595459 73.000000
9.597523 73.000000
9.599587 72.000000
9.601651 72.000000
9.603715 72.000000
9.605779 72.000000
9.607843 72.000000
9.609907 72.000000
9.611971 72.000000
9.614035 72.000000
9.616099 72.000000
9.618163 72.000000
9.620227 72.000000
9.622291 72.000000
9.624355 72.000000
9.626419 72.000000
9.628483 72.000000
9.630547 72.000000
9.632611 72.000000
9.634675 72.000000
9.636739 72.000000
9.638803 72.000000
9.640867 72.000000
9.642931 72.000000
9.644995 72.000000
9.647059 72.000000
9.649123 72.000000
9.651187 72.000000
9.653251 72.000000
9.655315 72.000000
9.657379 72.000000
9.659443 72.000000
9.661507 72.000000
9.663571 72.000000
9.665635 72.000000
9.667699 72.000000
9.669763 72.000000
9.671827 72.000000
9.673891 72.000000
9.675955 72.000000
9.678019 72.000000
9.680083 72.000000
9.682147 72.000000
9.684211 72.000000
9.686275 72.000000
9.688338 71.000000
9.690402 71.000000
9.692466 71.000000
9.694530 71.000000
9.696594 72.000000
9.698658 73.000000
9.700722 73.000000
9.702786 73.000000
9.704850 73.000000
9.706914 73.000000
9.708978 73.000000
9.711042 73.000000
9.713106 73.000000
9.715170 73.000000
9.717234 73.000000
9.719298 73.000000
9.721362 73.000000
9.723426 73.000000
9.725490 73.000000
9.727554 73.000000
9.729618 73.000000
9.731682 73.000000
9.733746 72.000000
9.735810 72.000000
9.737874 72.000000
9.739938 72.000000
9.742002 72.000000
9.744066 72.000000
9.746130 72.000000
9.748194 72.000000
9.750258 72.000000
9.752322 72.000000
9.754386 73.000000
9.756450 73.000000
9.758514 73.000000
9.760578 73.000000
9.762642 73.000000
9.764706 73.000000
9.766770 72.000000
9.768834 71.000000
9.770898 71.000000
9.772962 72.000000
9.775026 73.000000
9.777090 73.000000
9.779154 73.000000
9.781218 73.000000
9.783282 73.000000
9.785346 73.000000
9.787410 73.000000
9.789474 72.000000
9.791538 72.000000
9.793602 72.000000
9.795666 72.000000
9.797730 72.000000
9.799794 72.000000
9.801858 72.000000
9.803922 72.000000
9.805986 72.000000
9.808050 72.000000
9.810114 72.000000
9.812178 72.000000
9.814241 72.000000
9.816305 72.000000
9.818369 72.000000
9.820433 72.000000
9.822497 72.000000
9.824561 72.000000
9.826625 72.000000
9.828689 72.000000
9.830753 72.000000
9.832817 72.000000
9.834881 72.000000
9.836945 72.000000
9.839009 72.000000
9.841073 72.000000
9.843137 72.000000
9.845201 72.000000
9.847265 72.000000
9.849329 72.000000
9.851393 72.000000
9.853457 72.000000
9.855521 72.000000
9.857585 72.000000
9.859649 72.000000
9.861713 72.000000
9.863777 72.000000
9.865841 72.000000
9.867905 72.000000
9.869969 72.000000
9.872033 72.000000
9.874097 72.000000
9.876161 72.000000
9.878225 72.000000
9.880289 72.000000
9.882353 72.000000
9.884417 72.000000
9.886481 72.000000
9.888545 72.000000
9.890609 72.000000
9.892673 72.000000
9.894737 72.000000
9.896801 72.000000
9.898865 72.000000
9.900929 72.000000
9.902993 72.000000
9.905057 72.000000
9.907121 72.000000
9.909185 72.000000
9.911249 72.000000
9.913313 72.000000
9.915377 72.000000
9.917441 72.000000
9.919505 72.000000
9.921569 72.000000
9.923633 72.000000
9.925697 72.000000
9.927761 72.000000
9.929825 72.000000
9.931889 72.000000
9.933953 72.000000
9.936017 72.000000
9.938080 72.000000
9.940144 73.000000
9.942208 73.000000
9.944272 73.000000
9.946336 73.000000
9.948400 73.000000
9.950464 73.000000
9.952528 73.000000
9.954592 73.000000
9.956656 73.000000
9.958720 73.000000
9.960784 73.000000
9.962848 73.000000
9.964912 73.000000
9.966976 73.000000
9.969040 73.000000
9.971104 72.000000
9.973168 72.000000
9.975232 72.000000
9.977296 72.000000
9.979360 72.000000
9.981424 73.000000
9.983488 73.000000
9.985552 73.000000
9.987616 73.000000
9.989680 73.000000
9.991744 73.000000
9.993808 73.000000
9.995872 73.000000
9.997936 73.000000
10.000000 73.000000
10.002064 72.000000
10.004128 72.000000
10.006192 72.000000
10.008256 72.000000
10.010320 72.000000
10.012384 72.000000
10.014448 72.000000
10.016512 72.000000
10.018576 72.000000
10.020640 72.000000
10.022704 72.000000
10.024768 72.000000
10.026832 72.000000
10.028896 72.000000
10.030960 72.000000
10.033024 72.000000
10.035088 72.000000
10.037152 72.000000
10.039216 72.000000
10.041280 72.000000
10.043344 72.000000
10.045408 72.000000
10.047472 72.000000
10.049536 72.000000
10.051600 72.000000
10.053664 72.000000
10.055728 72.000000
10.057792 72.000000
10.059856 72.000000
10.061920 73.000000
10.063983 73.000000
10.066047 73.000000
10.068111 73.000000
10.070175 73.000000
10.072239 72.000000
10.074303 72.000000
10.076367 72.000000
10.078431 72.000000
10.080495 72.000000
10.082559 72.000000
10.084623 72.000000
10.086687 72.000000
10.088751 72.000000
10.090815 72.000000
10.092879 72.000000
10.094943 72.000000
10.097007 72.000000
10.099071 73.000000
10.101135 73.000000
10.103199 73.000000
10.105263 73.000000
10.107327 73.000000
10.109391 73.000000
10.111455 73.000000
10.113519 72.000000
10.115583 72.000000
10.117647 72.000000
10.119711 72.000000
10.121775 72.000000
10.123839 72.000000
10.125903 72.000000
10.127967 72.000000
10.130031 72.000000
10.132095 72.000000
10.134159 72.000000
10.136223 72.000000
10.138287 72.000000
10.140351 72.000000
10.142415 72.000000
10.144479 72.000000
10.146543 72.000000
10.148607 72.000000
10.150671 72.000000
10.152735 72.000000
10.154799 72.000000
10.156863 72.000000
10.158927 72.000000
10.160991 72.000000
10.163055 72.000000
10.165119 72.000000
10.167183 72.000000
10.169247 72.000000
10.171311 72.000000
10.173375 72.000000
10.175439 72.000000
10.177503 72.000000
10.179567 72.000000
10.181631 72.000000
10.183695 72.000000
10.185759 72.000000
10.187822 72.000000
10.189886 72.000000
10.191950 72.000000
10.194014 72.000000
10.196078 72.000000
10.198142 72.000000
10.200206 72.000000
10.202270 72.000000
10.204334 72.000000
10.206398 72.000000
10.208462 72.000000
10.210526 72.000000
10.212590 72.000000
10.214654 72.000000
10.216718 72.000000
10.218782 72.000000
10.220846 72.000000
10.222910 72.000000
10.224974 72.000000
10.227038 72.000000
10.229102 72.000000
10.231166 72.000000
10.233230 72.000000
10.235294 72.000000
10.237358 72.000000
10.239422 72.000000
10.241486 72.000000
10.243550 72.000000
10.245614 72.000000
10.247678 72.000000
10.249742 72.000000
10.251806 72.000000
10.253870 72.000000
10.255934 72.000000
10.257998 72.000000
10.260062 72.000000
10.262126 72.000000
10.264190 72.000000
10.266254 72.000000
10.268318 72.000000
10.270382 72.000000
10.272446 72.000000
10.274510 73.000000
10.276574 73.000000
10.278638 73.000000
10.280702 73.000000
10.282766 73.000000
10.284830 73.000000
10.286894 73.000000
10.288958 73.000000
10.291022 73.000000
10.293086 73.000000
10.295150 72.000000
10.297214 72.000000
10.299278 72.000000
10.301342 72.000000
10.303406 72.000000
10.305470 72.000000
10.307534 72.000000
10.309598 72.000000
10.311662 72.000000
10.313725 72.000000
10.315789 72.000000
10.317853 72.000000
10.319917 72.000000
10.321981 72.000000
10.324045 72.000000
10.326109 72.000000
10.328173 72.000000
10.330237 72.000000
10.332301 72.000000
10.334365 72.000000
10.336429 72.000000
10.338493 72.000000
10.340557 72.000000
10.342621 72.000000
10.344685 72.000000
10.346749 72.000000
10.348813 72.000000
10.350877 73.000000
10.352941 73.000000
10.355005 73.000000
10.357069 73.000000
10.359133 73.000000
10.361197 73.000000
10.363261 73.000000
10.365325 72.000000
10.367389 72.000000
10.369453 72.000000
10.371517 72.000000
10.373581 72.000000
10.375645 72.000000
10.377709 72.000000
10.379773 72.000000
10.381837 72.000000
10.383901 72.000000
10.385965 72.000000
10.388029 72.000000
10.390093 72.000000
10.392157 72.000000
10.394221 72.000000
10.396285 72.000000
10.398349 72.000000
10.400413 72.000000
10.402477 72.000000
10.404541 72.000000
10.406605 72.000000
10.408669 72.000000
10.410733 72.000000
10.412797 72.000000
10.414861 72.000000
10.416925 73.000000
10.418989 73.000000
10.421053 72.000000
10.423117 72.000000
10.425181 72.000000
10.427245 72.000000
10.429309 72.000000
10.431373 72.000000
10.433437 72.000000
10.435501 72.000000
10.437564 72.000000
10.439628 72.000000
10.441692 72.000000
10.443756 73.000000
10.445820 73.000000
10.447884 72.000000
10.449948 72.000000
10.452012 72.000000
10.454076 72.000000
10.456140 72.000000
10.458204 72.000000
10.460268 72.000000
10.462332 72.000000
10.464396 72.000000
10.466460 72.000000
10.468524 72.000000
10.470588 72.000000
10.472652 72.000000
10.474716 72.000000
10.476780 72.000000
10.478844 72.000000
10.480908 72.000000
10.482972 72.000000
10.485036 73.000000
10.487100 73.000000
10.489164 73.000000
10.491228 72.000000
10.493292 72.000000
10.495356 72.000000
10.497420 71.000000
10.499484 71.000000
10.501548 71.000000
10.503612 71.000000
10.505676 71.000000
10.507740 72.000000
10.509804 72.000000
10.511868 72.000000
10.513932 72.000000
10.515996 72.000000
10.518060 72.000000
10.520124 72.000000
10.522188 73.000000
10.524252 73.000000
10.526316 73.000000
10.528380 73.000000
10.530444 73.000000
10.532508 73.000000
10.534572 73.000000
10.536636 73.000000
10.538700 73.000000
10.540764 72.000000
10.542828 72.000000
10.544892 72.000000
10.546956 72.000000
10.549020 72.000000
10.551084 72.000000
10.553148 72.000000
10.555212 72.000000
10.557276 72.000000
10.559340 72.000000
10.561404 72.000000
10.563467 72.000000
10.565531 72.000000
10.567595 72.000000
10.569659 72.000000
10.571723 73.000000
10.573787 73.000000
10.575851 73.000000
10.577915 73.000000
10.579979 73.000000
10.582043 73.000000
10.584107 73.000000
10.586171 73.000000
10.588235 73.000000
10.590299 73.000000
10.592363 72.000000
10.594427 72.000000
10.596491 72.000000
10.598555 72.000000
10.600619 72.000000
10.602683 72.000000
10.604747 72.000000
10.606811 72.000000
10.608875 72.000000
10.610939 72.000000
10.613003 72.000000
10.615067 72.000000
10.617131 72.000000
10.619195 72.000000
10.621259 72.000000
10.623323 72.000000
10.625387 72.000000
10.627451 72.000000
10.629515 72.000000
10.631579 72.000000
10.633643 72.000000
10.635707 72.000000
10.637771 72.000000
10.639835 72.000000
10.641899 72.000000
10.643963 72.000000
10.646027 72.000000
10.648091 72.000000
10.650155 72.000000
10.652219 72.000000
10.654283 72.000000
10.656347 72.000000
10.658411 72.000000
10.660475 72.000000
10.662539 72.000000
10.664603 72.000000
10.666667 72.000000
10.668731 72.000000
10.670795 72.000000
10.672859 72.000000
10.674923 72.000000
10.676987 72.000000
10.679051 72.000000
10.681115 72.000000
10.683179 72.000000
10.685243 72.000000
10.687307 72.000000
10.689370 72.000000
10.691434 72.000000
10.693498 72.000000
10.695562 72.000000
10.697626 72.000000
10.699690 72.000000
10.701754 72.000000
10.703818 73.000000
10.705882 73.000000
10.707946 73.000000
10.710010 73.000000
10.712074 73.000000
10.714138 73.000000
10.716202 73.000000
10.718266 73.000000
10.720330 73.000000
10.722394 73.000000
10.724458 72.000000
10.726522 71.000000
10.728586 71.000000
10.730650 72.000000
10.732714 72.000000
10.734778 72.000000
10.736842 72.000000
10.738906 72.000000
10.740970 72.000000
10.743034 72.000000
10.745098 72.000000
10.747162 72.000000
10.749226 72.000000
10.751290 72.000000
10.753354 72.000000
10.755418 72.000000
10.757482 72.000000
10.759546 72.000000
10.761610 72.000000
10.763674 73.000000
10.765738 73.000000
10.767802 73.000000
10.769866 73.000000
10.771930 73.000000
10.773994 73.000000
10.776058 73.000000
10.778122 73.000000
10.780186 73.000000
10.782250 73.000000
10.784314 72.000000
10.786378 72.000000
10.788442 72.000000
10.790506 72.000000
10.792570 72.000000
10.794634 72.000000
10.796698 72.000000
10.798762 72.000000
10.800826 72.000000
10.802890 72.000000
10.804954 72.000000
10.807018 72.000000
10.809082 72.000000
10.811146 72.000000
10.813209 72.000000
10.815273 73.000000
10.817337 73.000000
10.819401 73.000000
10.821465 73.000000
10.823529 73.000000
10.825593 73.000000
10.827657 73.000000
10.829721 73.000000
10.831785 73.000000
10.833849 72.000000
10.835913 72.000000
10.837977 72.000000
10.840041 72.000000
10.842105 72.000000
10.844169 72.000000
10.846233 72.000000
10.848297 72.000000
10.850361 72.000000
10.852425 72.000000
10.854489 72.000000
10.856553 72.000000
10.858617 72.000000
10.860681 72.000000
10.862745 72.000000
10.864809 72.000000
10.866873 72.000000
10.868937 72.000000
10.871001 72.000000
10.873065 72.000000
10.875129 72.000000
10.877193 72.000000
10.879257 72.000000
10.881321 72.000000
10.883385 72.000000
10.885449 72.000000
10.887513 72.000000
10.889577 72.000000
10.891641 72.000000
10.893705 72.000000
10.895769 72.000000
10.897833 72.000000
10.899897 72.000000
10.901961 72.000000
10.904025 72.000000
10.906089 72.000000
10.908153 72.000000
10.910217 72.000000
10.912281 72.000000
10.914345 72.000000
10.916409 72.000000
10.918473 72.000000
10.920537 73.000000
10.922601 73.000000
10.924665 73.000000
10.926729 73.000000
10.928793 73.000000
10.930857 73.000000
10.932921 73.000000
10.934985 72.000000
10.937049 72.000000
10.939112 72.000000
10.941176 72.000000
10.943240 72.000000
10.945304 72.000000
10.947368 72.000000
10.949432 72.000000
10.951496 72.000000
10.953560 72.000000
10.955624 72.000000
10.957688 72.000000
10.959752 72.000000
10.961816 72.000000
10.963880 72.000000
10.965944 72.000000
10.968008 72.000000
10.970072 72.000000
10.972136 71.000000
10.974200 71.000000
10.976264 72.000000
10.978328 72.000000
10.980392 72.000000
10.982456 72.000000
10.984520 72.000000
10.986584 72.000000
10.988648 72.000000
10.990712 72.000000
10.992776 72.000000
10.994840 72.000000
10.996904 72.000000
10.998968 72.000000
11.001032 72.000000
11.003096 72.000000
11.005160 72.000000
11.007224 72.000000
11.009288 72.000000
11.011352 72.000000
11.013416 72.000000
11.015480 72.000000
11.017544 72.000000
11.019608 72.000000
11.021672 72.000000
11.023736 72.000000
11.025800 72.000000
11.027864 72.000000
11.029928 72.000000
11.031992 72.000000
11.034056 72.000000
11.036120 72.000000
11.038184 72.000000
11.040248 72.000000
11.042312 72.000000
11.044376 72.000000
11.046440 72.000000
11.048504 72.000000
11.050568 72.000000
11.052632 72.000000
11.054696 72.000000
11.056760 72.000000
11.058824 72.000000
11.060888 72.000000
11.062951 72.000000
11.065015 72.000000
11.067079 72.000000
11.069143 72.000000
11.071207 72.000000
11.073271 72.000000
11.075335 72.000000
11.077399 72.000000
11.079463 72.000000
11.081527 72.000000
11.083591 72.000000
11.085655 72.000000
11.087719 72.000000
11.089783 72.000000
11.091847 72.000000
11.093911 72.000000
11.095975 72.000000
11.098039 72.000000
11.100103 72.000000
11.102167 72.000000
11.104231 72.000000
11.106295 72.000000
11.108359 72.000000
11.110423 72.000000
11.112487 72.000000
11.114551 72.000000
11.116615 72.000000
11.118679 72.000000
11.120743 72.000000
11.122807 72.000000
11.124871 72.000000
11.126935 72.000000
11.128999 72.000000
11.131063 72.000000
11.133127 72.000000
11.135191 72.000000
11.137255 72.000000
11.139319 72.000000
11.141383 72.000000
11.143447 72.000000
11.145511 72.000000
11.147575 72.000000
11.149639 72.000000
11.151703 72.000000
11.153767 72.000000
11.155831 72.000000
11.157895 72.000000
11.159959 72.000000
11.162023 72.000000
11.164087 72.000000
11.166151 72.000000
11.168215 72.000000
11.170279 72.000000
11.172343 72.000000
11.174407 72.000000
11.176471 72.000000
11.178535 72.000000
11.180599 72.000000
11.182663 72.000000
11.184727 72.000000
11.186791 72.000000
11.188854 72.000000
11.190918 72.000000
11.192982 72.000000
11.195046 72.000000
11.197110 72.000000
11.199174 72.000000
11.201238 72.000000
11.203302 72.000000
11.205366 72.000000
11.207430 72.000000
11.209494 72.000000
11.211558 72.000000
11.213622 72.000000
11.215686 72.000000
11.217750 72.000000
11.219814 72.000000
11.221878 72.000000
11.223942 72.000000
11.226006 72.000000
11.228070 72.000000
11.230134 72.000000
11.232198 72.000000
11.234262 72.000000
11.236326 72.000000
11.238390 72.000000
11.240454 72.000000
11.242518 72.000000
11.244582 72.000000
11.246646 72.000000
11.248710 72.000000
11.250774 72.000000
11.252838 72.000000
11.254902 72.000000
11.256966 72.000000
11.259030 72.000000
11.261094 72.000000
11.263158 72.000000
11.265222 72.000000
11.267286 73.000000
11.269350 73.000000
11.271414 73.000000
11.273478 71.000000
11.275542 71.000000
11.277606 71.000000
11.279670 71.000000
11.281734 71.000000
11.283798 71.000000
11.285862 71.000000
11.287926 71.000000
11.289990 71.000000
11.292054 71.000000
11.294118 71.000000
11.296182 71.000000
11.298246 71.000000
11.300310 71.000000
11.302374 71.000000
11.304438 71.000000
11.306502 71.000000
11.308566 72.000000
11.310630 72.000000
11.312693 72.000000
11.314757 72.000000
11.316821 72.000000
11.318885 72.000000
11.320949 72.000000
11.323013 72.000000
11.325077 72.000000
11.327141 72.000000
11.329205 72.000000
11.331269 72.000000
11.333333 72.000000
11.335397 72.000000
11.337461 72.000000
11.339525 72.000000
11.341589 72.000000
11.343653 72.000000
11.345717 72.000000
11.347781 72.000000
11.349845 72.000000
11.351909 72.000000
11.353973 72.000000
11.356037 72.000000
11.358101 72.000000
11.360165 72.000000
11.362229 72.000000
11.364293 72.000000
11.366357 72.000000
11.368421 72.000000
11.370485 72.000000
11.372549 72.000000
11.374613 72.000000
11.376677 72.000000
11.378741 72.000000
11.380805 72.000000
11.382869 72.000000
11.384933 72.000000
11.386997 72.000000
11.389061 72.000000
11.391125 72.000000
11.393189 72.000000
11.395253 72.000000
11.397317 72.000000
11.399381 72.000000
11.401445 72.000000
11.403509 73.000000
11.405573 73.000000
11.407637 73.000000
11.409701 73.000000
11.411765 73.000000
11.413829 73.000000
11.415893 73.000000
11.417957 73.000000
11.420021 73.000000
11.422085 72.000000
11.424149 72.000000
11.426213 72.000000
11.428277 72.000000
11.430341 72.000000
11.432405 72.000000
11.434469 72.000000
11.436533 72.000000
11.438596 72.000000
11.440660 72.000000
11.442724 72.000000
11.444788 72.000000
11.446852 72.000000
11.448916 72.000000
11.450980 72.000000
11.453044 71.000000
11.455108 71.000000
11.457172 71.000000
11.459236 71.000000
11.461300 71.000000
11.463364 72.000000
11.465428 72.000000
11.467492 72.000000
11.469556 72.000000
11.471620 72.000000
11.473684 72.000000
11.475748 72.000000
11.477812 72.000000
11.479876 72.000000
11.481940 72.000000
11.484004 72.000000
11.486068 72.000000
11.488132 72.000000
11.490196 72.000000
11.492260 72.000000
11.494324 72.000000
11.496388 72.000000
11.498452 72.000000
11.500516 72.000000
11.502580 72.000000
11.504644 72.000000
11.506708 72.000000
11.508772 72.000000
11.510836 72.000000
11.512900 72.000000
11.514964 72.000000
11.517028 72.000000
11.519092 72.000000
11.521156 72.000000
11.523220 72.000000
11.525284 72.000000
11.527348 72.000000
11.529412 72.000000
11.531476 72.000000
11.533540 72.000000
11.535604 72.000000
11.537668 72.000000
11.539732 72.000000
11.541796 72.000000
11.543860 72.000000
11.545924 72.000000
11.547988 72.000000
11.550052 72.000000
11.552116 72.000000
11.554180 71.000000
11.556244 71.000000
11.558308 71.000000
11.560372 71.000000
11.562436 71.000000
11.564499 72.000000
11.566563 72.000000
11.568627 72.000000
11.570691 72.000000
11.572755 72.000000
11.574819 72.000000
11.576883 72.000000
11.578947 72.000000
11.581011 72.000000
11.583075 72.000000
11.585139 72.000000
11.587203 72.000000
11.589267 72.000000
11.591331 72.000000
11.593395 72.000000
11.595459 72.000000
11.597523 72.000000
11.599587 72.000000
11.601651 71.000000
11.603715 71.000000
11.605779 71.000000
11.607843 71.000000
11.609907 72.000000
11.611971 72.000000
11.614035 72.000000
11.616099 72.000000
11.618163 72.000000
11.620227 72.000000
11.622291 72.000000
11.624355 71.000000
11.626419 71.000000
11.628483 71.000000
11.630547 71.000000
11.632611 71.000000
11.634675 72.000000
11.636739 72.000000
11.638803 72.000000
11.640867 72.000000
11.642931 72.000000
11.644995 72.000000
11.647059 72.000000
11.649123 72.000000
11.651187 72.000000
11.653251 72.000000
11.655315 72.000000
11.657379 72.000000
11.659443 72.000000
11.661507 72.000000
11.663571 72.000000
11.665635 72.000000
11.667699 72.000000
11.669763 72.000000
11.671827 72.000000
11.673891 72.000000
11.675955 72.000000
11.678019 72.000000
11.680083 72.000000
11.682147 72.000000
11.684211 72.000000
11.686275 72.000000
11.688338 72.000000
11.690402 72.000000
11.692466 72.000000
11.694530 72.000000
11.696594 72.000000
11.698658 72.000000
11.700722 72.000000
11.702786 72.000000
11.704850 72.000000
11.706914 72.000000
11.708978 72.000000
11.711042 72.000000
11.713106 72.000000
11.715170 72.000000
11.717234 72.000000
11.719298 72.000000
11.721362 72.000000
11.723426 72.000000
11.725490 71.000000
11.727554 71.000000
11.729618 71.000000
11.731682 71.000000
11.733746 71.000000
11.735810 72.000000
11.737874 72.000000
11.739938 72.000000
11.742002 72.000000
11.744066 72.000000
11.746130 72.000000
11.748194 72.000000
11.750258 72.000000
11.752322 72.000000
11.754386 72.000000
11.756450 73.000000
11.758514 73.000000
11.760578 73.000000
11.762642 73.000000
11.764706 73.000000
11.766770 73.000000
##END=
