##TITLE= TP_Ejercicio_1a [300 MHZ ¹H NMR en CDCl₃]
##JCAMP-DX= 5.00
##ORIGIN= LISA RMN DB
##DATA TYPE= NMR SPECTRUM
##DATA CLASS= XYDATA
##$BF1= 300.0
##$SFO1= 300.0
##$NUC1= <1H>
##XUNITS=	PPM
##YUNITS=	Intensity
##NPOINTS=	5749
##FIRSTX=	-0.097007
##LASTX=	11.766770
##FIRSTY=	83.000000
##LASTY=	81.000000
##XFACTOR= 1
##YFACTOR= 1
##MAXY= 2345.000000
##MINY= 78.000000
##DELTAX= 0.002064
##XYDATA=(X++(Y..Y))
-0.097007 83.000000
-0.094943 83.000000
-0.092879 83.000000
-0.090815 83.000000
-0.088751 83.000000
-0.086687 83.000000
-0.084623 83.000000
-0.082559 83.000000
-0.080495 83.000000
-0.078431 83.000000
-0.076367 83.000000
-0.074303 83.000000
-0.072239 83.000000
-0.070175 83.000000
-0.068111 84.000000
-0.066047 84.000000
-0.063983 84.000000
-0.061920 84.000000
-0.059856 84.000000
-0.057792 84.000000
-0.055728 84.000000
-0.053664 84.000000
-0.051600 84.000000
-0.049536 84.000000
-0.047472 85.000000
-0.045408 85.000000
-0.043344 86.000000
-0.041280 86.000000
-0.039216 87.000000
-0.037152 87.000000
-0.035088 88.000000
-0.033024 88.000000
-0.030960 90.000000
-0.028896 90.000000
-0.026832 90.000000
-0.024768 90.000000
-0.022704 90.000000
-0.020640 90.000000
-0.018576 95.000000
-0.016512 97.000000
-0.014448 100.000000
-0.012384 104.000000
-0.010320 106.000000
-0.008256 145.000000
-0.006192 317.000000
-0.004128 428.000000
-0.002064 614.000000
0.000000 219.000000
0.002064 116.000000
0.004128 98.000000
0.006192 96.000000
0.008256 99.000000
0.010320 99.000000
0.012384 88.000000
0.014448 86.000000
0.016512 86.000000
0.018576 85.000000
0.020640 84.000000
0.022704 84.000000
0.024768 83.000000
0.026832 83.000000
0.028896 83.000000
0.030960 83.000000
0.033024 83.000000
0.035088 82.000000
0.037152 82.000000
0.039216 82.000000
0.041280 82.000000
0.043344 82.000000
0.045408 82.000000
0.047472 82.000000
0.049536 82.000000
0.051600 82.000000
0.053664 82.000000
0.055728 81.000000
0.057792 81.000000
0.059856 81.000000
0.061920 81.000000
0.063983 81.000000
0.066047 81.000000
0.068111 81.000000
0.070175 81.000000
0.072239 81.000000
0.074303 82.000000
0.076367 82.000000
0.078431 82.000000
0.080495 83.000000
0.082559 83.000000
0.084623 83.000000
0.086687 83.000000
0.088751 83.000000
0.090815 82.000000
0.092879 82.000000
0.094943 81.000000
0.097007 81.000000
0.099071 81.000000
0.101135 81.000000
0.103199 81.000000
0.105263 81.000000
0.107327 81.000000
0.109391 81.000000
0.111455 81.000000
0.113519 81.000000
0.115583 81.000000
0.117647 81.000000
0.119711 81.000000
0.121775 81.000000
0.123839 81.000000
0.125903 81.000000
0.127967 81.000000
0.130031 81.000000
0.132095 81.000000
0.134159 81.000000
0.136223 81.000000
0.138287 81.000000
0.140351 81.000000
0.142415 81.000000
0.144479 81.000000
0.146543 81.000000
0.148607 81.000000
0.150671 81.000000
0.152735 81.000000
0.154799 81.000000
0.156863 81.000000
0.158927 81.000000
0.160991 81.000000
0.163055 81.000000
0.165119 81.000000
0.167183 81.000000
0.169247 81.000000
0.171311 81.000000
0.173375 81.000000
0.175439 81.000000
0.177503 81.000000
0.179567 81.000000
0.181631 81.000000
0.183695 81.000000
0.185759 81.000000
0.187822 81.000000
0.189886 81.000000
0.191950 81.000000
0.194014 81.000000
0.196078 82.000000
0.198142 82.000000
0.200206 82.000000
0.202270 82.000000
0.204334 82.000000
0.206398 82.000000
0.208462 82.000000
0.210526 82.000000
0.212590 82.000000
0.214654 82.000000
0.216718 81.000000
0.218782 81.000000
0.220846 81.000000
0.222910 81.000000
0.224974 81.000000
0.227038 81.000000
0.229102 81.000000
0.231166 81.000000
0.233230 81.000000
0.235294 81.000000
0.237358 81.000000
0.239422 81.000000
0.241486 81.000000
0.243550 81.000000
0.245614 81.000000
0.247678 81.000000
0.249742 81.000000
0.251806 81.000000
0.253870 81.000000
0.255934 81.000000
0.257998 81.000000
0.260062 81.000000
0.262126 81.000000
0.264190 81.000000
0.266254 81.000000
0.268318 81.000000
0.270382 81.000000
0.272446 81.000000
0.274510 81.000000
0.276574 81.000000
0.278638 81.000000
0.280702 81.000000
0.282766 81.000000
0.284830 81.000000
0.286894 81.000000
0.288958 81.000000
0.291022 81.000000
0.293086 81.000000
0.295150 81.000000
0.297214 81.000000
0.299278 81.000000
0.301342 81.000000
0.303406 81.000000
0.305470 81.000000
0.307534 81.000000
0.309598 81.000000
0.311662 81.000000
0.313725 81.000000
0.315789 81.000000
0.317853 81.000000
0.319917 81.000000
0.321981 81.000000
0.324045 81.000000
0.326109 81.000000
0.328173 81.000000
0.330237 81.000000
0.332301 81.000000
0.334365 81.000000
0.336429 81.000000
0.338493 81.000000
0.340557 81.000000
0.342621 81.000000
0.344685 81.000000
0.346749 81.000000
0.348813 81.000000
0.350877 81.000000
0.352941 81.000000
0.355005 81.000000
0.357069 81.000000
0.359133 81.000000
0.361197 81.000000
0.363261 81.000000
0.365325 81.000000
0.367389 81.000000
0.369453 81.000000
0.371517 81.000000
0.373581 81.000000
0.375645 81.000000
0.377709 81.000000
0.379773 81.000000
0.381837 81.000000
0.383901 81.000000
0.385965 81.000000
0.388029 81.000000
0.390093 81.000000
0.392157 81.000000
0.394221 81.000000
0.396285 81.000000
0.398349 81.000000
0.400413 81.000000
0.402477 81.000000
0.404541 81.000000
0.406605 81.000000
0.408669 81.000000
0.410733 81.000000
0.412797 81.000000
0.414861 81.000000
0.416925 81.000000
0.418989 81.000000
0.421053 81.000000
0.423117 81.000000
0.425181 81.000000
0.427245 81.000000
0.429309 81.000000
0.431373 81.000000
0.433437 81.000000
0.435501 81.000000
0.437564 81.000000
0.439628 81.000000
0.441692 81.000000
0.443756 81.000000
0.445820 81.000000
0.447884 81.000000
0.449948 81.000000
0.452012 81.000000
0.454076 81.000000
0.456140 81.000000
0.458204 81.000000
0.460268 81.000000
0.462332 81.000000
0.464396 81.000000
0.466460 81.000000
0.468524 81.000000
0.470588 81.000000
0.472652 81.000000
0.474716 81.000000
0.476780 81.000000
0.478844 81.000000
0.480908 81.000000
0.482972 81.000000
0.485036 81.000000
0.487100 81.000000
0.489164 81.000000
0.491228 81.000000
0.493292 81.000000
0.495356 81.000000
0.497420 81.000000
0.499484 81.000000
0.501548 81.000000
0.503612 81.000000
0.505676 81.000000
0.507740 81.000000
0.509804 81.000000
0.511868 81.000000
0.513932 81.000000
0.515996 81.000000
0.518060 81.000000
0.520124 81.000000
0.522188 81.000000
0.524252 81.000000
0.526316 81.000000
0.528380 81.000000
0.530444 81.000000
0.532508 81.000000
0.534572 81.000000
0.536636 81.000000
0.538700 81.000000
0.540764 81.000000
0.542828 81.000000
0.544892 81.000000
0.546956 81.000000
0.549020 81.000000
0.551084 81.000000
0.553148 81.000000
0.555212 81.000000
0.557276 81.000000
0.559340 81.000000
0.561404 81.000000
0.563467 81.000000
0.565531 81.000000
0.567595 81.000000
0.569659 81.000000
0.571723 81.000000
0.573787 81.000000
0.575851 81.000000
0.577915 81.000000
0.579979 81.000000
0.582043 81.000000
0.584107 81.000000
0.586171 81.000000
0.588235 81.000000
0.590299 81.000000
0.592363 81.000000
0.594427 81.000000
0.596491 81.000000
0.598555 81.000000
0.600619 81.000000
0.602683 81.000000
0.604747 81.000000
0.606811 81.000000
0.608875 81.000000
0.610939 81.000000
0.613003 81.000000
0.615067 81.000000
0.617131 81.000000
0.619195 81.000000
0.621259 81.000000
0.623323 81.000000
0.625387 81.000000
0.627451 81.000000
0.629515 81.000000
0.631579 80.000000
0.633643 80.000000
0.635707 80.000000
0.637771 80.000000
0.639835 80.000000
0.641899 81.000000
0.643963 81.000000
0.646027 81.000000
0.648091 81.000000
0.650155 81.000000
0.652219 81.000000
0.654283 81.000000
0.656347 81.000000
0.658411 81.000000
0.660475 81.000000
0.662539 81.000000
0.664603 81.000000
0.666667 81.000000
0.668731 81.000000
0.670795 81.000000
0.672859 81.000000
0.674923 81.000000
0.676987 81.000000
0.679051 81.000000
0.681115 81.000000
0.683179 81.000000
0.685243 81.000000
0.687307 81.000000
0.689370 81.000000
0.691434 81.000000
0.693498 81.000000
0.695562 81.000000
0.697626 81.000000
0.699690 81.000000
0.701754 81.000000
0.703818 81.000000
0.705882 81.000000
0.707946 81.000000
0.710010 81.000000
0.712074 81.000000
0.714138 81.000000
0.716202 81.000000
0.718266 81.000000
0.720330 81.000000
0.722394 81.000000
0.724458 81.000000
0.726522 81.000000
0.728586 81.000000
0.730650 81.000000
0.732714 81.000000
0.734778 81.000000
0.736842 81.000000
0.738906 81.000000
0.740970 81.000000
0.743034 81.000000
0.745098 81.000000
0.747162 81.000000
0.749226 81.000000
0.751290 81.000000
0.753354 81.000000
0.755418 81.000000
0.757482 81.000000
0.759546 81.000000
0.761610 81.000000
0.763674 81.000000
0.765738 81.000000
0.767802 81.000000
0.769866 81.000000
0.771930 81.000000
0.773994 81.000000
0.776058 81.000000
0.778122 81.000000
0.780186 81.000000
0.782250 81.000000
0.784314 81.000000
0.786378 81.000000
0.788442 81.000000
0.790506 81.000000
0.792570 81.000000
0.794634 81.000000
0.796698 81.000000
0.798762 81.000000
0.800826 81.000000
0.802890 82.000000
0.804954 82.000000
0.807018 82.000000
0.809082 82.000000
0.811146 82.000000
0.813209 82.000000
0.815273 82.000000
0.817337 82.000000
0.819401 82.000000
0.821465 82.000000
0.823529 82.000000
0.825593 82.000000
0.827657 82.000000
0.829721 82.000000
0.831785 82.000000
0.833849 82.000000
0.835913 82.000000
0.837977 82.000000
0.840041 82.000000
0.842105 83.000000
0.844169 83.000000
0.846233 83.000000
0.848297 83.000000
0.850361 83.000000
0.852425 83.000000
0.854489 83.000000
0.856553 83.000000
0.858617 83.000000
0.860681 83.000000
0.862745 83.000000
0.864809 83.000000
0.866873 83.000000
0.868937 83.000000
0.871001 83.000000
0.873065 83.000000
0.875129 83.000000
0.877193 83.000000
0.879257 83.000000
0.881321 83.000000
0.883385 82.000000
0.885449 82.000000
0.887513 82.000000
0.889577 82.000000
0.891641 82.000000
0.893705 82.000000
0.895769 82.000000
0.897833 82.000000
0.899897 82.000000
0.901961 82.000000
0.904025 82.000000
0.906089 82.000000
0.908153 82.000000
0.910217 82.000000
0.912281 82.000000
0.914345 81.000000
0.916409 81.000000
0.918473 81.000000
0.920537 81.000000
0.922601 81.000000
0.924665 82.000000
0.926729 82.000000
0.928793 82.000000
0.930857 82.000000
0.932921 82.000000
0.934985 82.000000
0.937049 82.000000
0.939112 82.000000
0.941176 82.000000
0.943240 82.000000
0.945304 82.000000
0.947368 82.000000
0.949432 83.000000
0.951496 83.000000
0.953560 83.000000
0.955624 83.000000
0.957688 83.000000
0.959752 83.000000
0.961816 83.000000
0.963880 82.000000
0.965944 82.000000
0.968008 82.000000
0.970072 82.000000
0.972136 82.000000
0.974200 82.000000
0.976264 82.000000
0.978328 82.000000
0.980392 82.000000
0.982456 82.000000
0.984520 84.000000
0.986584 89.000000
0.988648 89.000000
0.990712 86.000000
0.992776 85.000000
0.994840 84.000000
0.996904 84.000000
0.998968 83.000000
1.001032 83.000000
1.003096 83.000000
1.005160 83.000000
1.007224 83.000000
1.009288 86.000000
1.011352 89.000000
1.013416 92.000000
1.015480 96.000000
1.017544 88.000000
1.019608 86.000000
1.021672 86.000000
1.023736 86.000000
1.025800 85.000000
1.027864 84.000000
1.029928 84.000000
1.031992 84.000000
1.034056 85.000000
1.036120 85.000000
1.038184 88.000000
1.040248 88.000000
1.042312 87.000000
1.044376 86.000000
1.046440 88.000000
1.048504 90.000000
1.050568 90.000000
1.052632 86.000000
1.054696 84.000000
1.056760 84.000000
1.058824 84.000000
1.060888 84.000000
1.062951 84.000000
1.065015 84.000000
1.067079 84.000000
1.069143 85.000000
1.071207 85.000000
1.073271 87.000000
1.075335 87.000000
1.077399 86.000000
1.079463 86.000000
1.081527 86.000000
1.083591 87.000000
1.085655 87.000000
1.087719 87.000000
1.089783 85.000000
1.091847 85.000000
1.093911 85.000000
1.095975 85.000000
1.098039 85.000000
1.100103 89.000000
1.102167 89.000000
1.104231 90.000000
1.106295 90.000000
1.108359 93.000000
1.110423 93.000000
1.112487 92.000000
1.114551 90.000000
1.116615 90.000000
1.118679 91.000000
1.120743 92.000000
1.122807 93.000000
1.124871 94.000000
1.126935 95.000000
1.128999 96.000000
1.131063 98.000000
1.133127 101.000000
1.135191 101.000000
1.137255 100.000000
1.139319 98.000000
1.141383 98.000000
1.143447 99.000000
1.145511 100.000000
1.147575 100.000000
1.149639 101.000000
1.151703 102.000000
1.153767 104.000000
1.155831 105.000000
1.157895 106.000000
1.159959 106.000000
1.162023 107.000000
1.164087 109.000000
1.166151 111.000000
1.168215 112.000000
1.170279 114.000000
1.172343 115.000000
1.174407 118.000000
1.176471 124.000000
1.178535 126.000000
1.180599 129.000000
1.182663 129.000000
1.184727 128.000000
1.186791 137.000000
1.188854 137.000000
1.190918 149.000000
1.192982 161.000000
1.195046 170.000000
1.197110 290.000000
1.199174 1102.000000
1.201238 1150.000000
1.203302 427.000000
1.205366 241.000000
1.207430 214.000000
1.209494 187.000000
1.211558 164.000000
1.213622 164.000000
1.215686 178.000000
1.217750 188.000000
1.219814 191.000000
1.221878 324.000000
1.223942 1269.000000
1.226006 2345.000000
1.228070 1829.000000
1.230134 1267.000000
1.232198 364.000000
1.234262 229.000000
1.236326 174.000000
1.238390 144.000000
1.240454 131.000000
1.242518 149.000000
1.244582 150.000000
1.246646 227.000000
1.248710 652.000000
1.250774 917.000000
1.252838 1239.000000
1.254902 572.000000
1.256966 208.000000
1.259030 153.000000
1.261094 123.000000
1.263158 113.000000
1.265222 110.000000
1.267286 104.000000
1.269350 102.000000
1.271414 101.000000
1.273478 99.000000
1.275542 98.000000
1.277606 95.000000
1.279670 93.000000
1.281734 93.000000
1.283798 93.000000
1.285862 92.000000
1.287926 92.000000
1.289990 91.000000
1.292054 89.000000
1.294118 89.000000
1.296182 89.000000
1.298246 89.000000
1.300310 89.000000
1.302374 89.000000
1.304438 89.000000
1.306502 89.000000
1.308566 89.000000
1.310630 89.000000
1.312693 91.000000
1.314757 91.000000
1.316821 87.000000
1.318885 86.000000
1.320949 86.000000
1.323013 86.000000
1.325077 86.000000
1.327141 86.000000
1.329205 86.000000
1.331269 87.000000
1.333333 87.000000
1.335397 87.000000
1.337461 87.000000
1.339525 87.000000
1.341589 85.000000
1.343653 84.000000
1.345717 84.000000
1.347781 84.000000
1.349845 84.000000
1.351909 84.000000
1.353973 85.000000
1.356037 85.000000
1.358101 86.000000
1.360165 86.000000
1.362229 86.000000
1.364293 86.000000
1.366357 85.000000
1.368421 85.000000
1.370485 85.000000
1.372549 85.000000
1.374613 86.000000
1.376677 86.000000
1.378741 86.000000
1.380805 86.000000
1.382869 86.000000
1.384933 86.000000
1.386997 86.000000
1.389061 94.000000
1.391125 95.000000
1.393189 92.000000
1.395253 92.000000
1.397317 92.000000
1.399381 92.000000
1.401445 92.000000
1.403509 92.000000
1.405573 91.000000
1.407637 91.000000
1.409701 93.000000
1.411765 93.000000
1.413829 88.000000
1.415893 86.000000
1.417957 86.000000
1.420021 85.000000
1.422085 85.000000
1.424149 85.000000
1.426213 85.000000
1.428277 85.000000
1.430341 85.000000
1.432405 85.000000
1.434469 93.000000
1.436533 93.000000
1.438596 88.000000
1.440660 86.000000
1.442724 85.000000
1.444788 85.000000
1.446852 84.000000
1.448916 84.000000
1.450980 84.000000
1.453044 84.000000
1.455108 84.000000
1.457172 84.000000
1.459236 92.000000
1.461300 92.000000
1.463364 86.000000
1.465428 85.000000
1.467492 84.000000
1.469556 83.000000
1.471620 83.000000
1.473684 83.000000
1.475748 83.000000
1.477812 83.000000
1.479876 84.000000
1.481940 84.000000
1.484004 84.000000
1.486068 84.000000
1.488132 84.000000
1.490196 84.000000
1.492260 84.000000
1.494324 83.000000
1.496388 83.000000
1.498452 82.000000
1.500516 82.000000
1.502580 82.000000
1.504644 82.000000
1.506708 82.000000
1.508772 83.000000
1.510836 83.000000
1.512900 83.000000
1.514964 83.000000
1.517028 83.000000
1.519092 83.000000
1.521156 83.000000
1.523220 83.000000
1.525284 83.000000
1.527348 83.000000
1.529412 83.000000
1.531476 83.000000
1.533540 83.000000
1.535604 83.000000
1.537668 83.000000
1.539732 83.000000
1.541796 83.000000
1.543860 83.000000
1.545924 83.000000
1.547988 83.000000
1.550052 83.000000
1.552116 83.000000
1.554180 83.000000
1.556244 83.000000
1.558308 83.000000
1.560372 83.000000
1.562436 83.000000
1.564499 83.000000
1.566563 83.000000
1.568627 83.000000
1.570691 83.000000
1.572755 83.000000
1.574819 83.000000
1.576883 83.000000
1.578947 83.000000
1.581011 83.000000
1.583075 83.000000
1.585139 83.000000
1.587203 83.000000
1.589267 83.000000
1.591331 83.000000
1.593395 83.000000
1.595459 83.000000
1.597523 83.000000
1.599587 83.000000
1.601651 83.000000
1.603715 83.000000
1.605779 83.000000
1.607843 83.000000
1.609907 83.000000
1.611971 83.000000
1.614035 83.000000
1.616099 83.000000
1.618163 83.000000
1.620227 83.000000
1.622291 83.000000
1.624355 83.000000
1.626419 83.000000
1.628483 83.000000
1.630547 82.000000
1.632611 82.000000
1.634675 82.000000
1.636739 82.000000
1.638803 82.000000
1.640867 82.000000
1.642931 82.000000
1.644995 82.000000
1.647059 82.000000
1.649123 82.000000
1.651187 82.000000
1.653251 82.000000
1.655315 82.000000
1.657379 82.000000
1.659443 82.000000
1.661507 82.000000
1.663571 82.000000
1.665635 82.000000
1.667699 82.000000
1.669763 82.000000
1.671827 82.000000
1.673891 82.000000
1.675955 82.000000
1.678019 82.000000
1.680083 82.000000
1.682147 82.000000
1.684211 82.000000
1.686275 82.000000
1.688338 82.000000
1.690402 82.000000
1.692466 82.000000
1.694530 82.000000
1.696594 82.000000
1.698658 82.000000
1.700722 82.000000
1.702786 82.000000
1.704850 82.000000
1.706914 82.000000
1.708978 82.000000
1.711042 82.000000
1.713106 82.000000
1.715170 82.000000
1.717234 82.000000
1.719298 82.000000
1.721362 82.000000
1.723426 82.000000
1.725490 82.000000
1.727554 82.000000
1.729618 82.000000
1.731682 82.000000
1.733746 82.000000
1.735810 82.000000
1.737874 82.000000
1.739938 82.000000
1.742002 82.000000
1.744066 82.000000
1.746130 82.000000
1.748194 82.000000
1.750258 82.000000
1.752322 82.000000
1.754386 82.000000
1.756450 82.000000
1.758514 82.000000
1.760578 82.000000
1.762642 81.000000
1.764706 81.000000
1.766770 81.000000
1.768834 81.000000
1.770898 81.000000
1.772962 81.000000
1.775026 81.000000
1.777090 81.000000
1.779154 81.000000
1.781218 81.000000
1.783282 81.000000
1.785346 81.000000
1.787410 81.000000
1.789474 81.000000
1.791538 81.000000
1.793602 81.000000
1.795666 81.000000
1.797730 81.000000
1.799794 81.000000
1.801858 81.000000
1.803922 81.000000
1.805986 81.000000
1.808050 81.000000
1.810114 81.000000
1.812178 81.000000
1.814241 81.000000
1.816305 81.000000
1.818369 81.000000
1.820433 81.000000
1.822497 81.000000
1.824561 81.000000
1.826625 81.000000
1.828689 81.000000
1.830753 81.000000
1.832817 81.000000
1.834881 81.000000
1.836945 81.000000
1.839009 81.000000
1.841073 81.000000
1.843137 81.000000
1.845201 81.000000
1.847265 81.000000
1.849329 81.000000
1.851393 81.000000
1.853457 81.000000
1.855521 81.000000
1.857585 81.000000
1.859649 81.000000
1.861713 81.000000
1.863777 82.000000
1.865841 82.000000
1.867905 82.000000
1.869969 82.000000
1.872033 82.000000
1.874097 82.000000
1.876161 82.000000
1.878225 82.000000
1.880289 82.000000
1.882353 82.000000
1.884417 82.000000
1.886481 82.000000
1.888545 82.000000
1.890609 82.000000
1.892673 82.000000
1.894737 82.000000
1.896801 82.000000
1.898865 82.000000
1.900929 82.000000
1.902993 81.000000
1.905057 81.000000
1.907121 81.000000
1.909185 81.000000
1.911249 81.000000
1.913313 81.000000
1.915377 81.000000
1.917441 81.000000
1.919505 81.000000
1.921569 81.000000
1.923633 82.000000
1.925697 82.000000
1.927761 82.000000
1.929825 82.000000
1.931889 82.000000
1.933953 82.000000
1.936017 82.000000
1.938080 82.000000
1.940144 82.000000
1.942208 82.000000
1.944272 81.000000
1.946336 81.000000
1.948400 81.000000
1.950464 81.000000
1.952528 81.000000
1.954592 81.000000
1.956656 81.000000
1.958720 81.000000
1.960784 81.000000
1.962848 81.000000
1.964912 81.000000
1.966976 81.000000
1.969040 81.000000
1.971104 81.000000
1.973168 81.000000
1.975232 81.000000
1.977296 81.000000
1.979360 81.000000
1.981424 81.000000
1.983488 81.000000
1.985552 81.000000
1.987616 81.000000
1.989680 81.000000
1.991744 81.000000
1.993808 81.000000
1.995872 81.000000
1.997936 81.000000
2.000000 81.000000
2.002064 81.000000
2.004128 81.000000
2.006192 81.000000
2.008256 81.000000
2.010320 81.000000
2.012384 81.000000
2.014448 81.000000
2.016512 81.000000
2.018576 81.000000
2.020640 81.000000
2.022704 81.000000
2.024768 81.000000
2.026832 81.000000
2.028896 81.000000
2.030960 81.000000
2.033024 81.000000
2.035088 81.000000
2.037152 81.000000
2.039216 81.000000
2.041280 81.000000
2.043344 81.000000
2.045408 81.000000
2.047472 81.000000
2.049536 81.000000
2.051600 81.000000
2.053664 81.000000
2.055728 81.000000
2.057792 81.000000
2.059856 81.000000
2.061920 81.000000
2.063983 81.000000
2.066047 81.000000
2.068111 81.000000
2.070175 81.000000
2.072239 81.000000
2.074303 81.000000
2.076367 81.000000
2.078431 81.000000
2.080495 81.000000
2.082559 81.000000
2.084623 81.000000
2.086687 81.000000
2.088751 81.000000
2.090815 81.000000
2.092879 81.000000
2.094943 81.000000
2.097007 81.000000
2.099071 81.000000
2.101135 81.000000
2.103199 81.000000
2.105263 81.000000
2.107327 81.000000
2.109391 81.000000
2.111455 81.000000
2.113519 81.000000
2.115583 81.000000
2.117647 81.000000
2.119711 81.000000
2.121775 81.000000
2.123839 81.000000
2.125903 81.000000
2.127967 81.000000
2.130031 81.000000
2.132095 81.000000
2.134159 81.000000
2.136223 81.000000
2.138287 81.000000
2.140351 81.000000
2.142415 81.000000
2.144479 81.000000
2.146543 81.000000
2.148607 81.000000
2.150671 81.000000
2.152735 81.000000
2.154799 81.000000
2.156863 81.000000
2.158927 81.000000
2.160991 81.000000
2.163055 81.000000
2.165119 81.000000
2.167183 81.000000
2.169247 81.000000
2.171311 81.000000
2.173375 81.000000
2.175439 81.000000
2.177503 81.000000
2.179567 81.000000
2.181631 81.000000
2.183695 81.000000
2.185759 81.000000
2.187822 81.000000
2.189886 81.000000
2.191950 81.000000
2.194014 81.000000
2.196078 82.000000
2.198142 82.000000
2.200206 82.000000
2.202270 82.000000
2.204334 82.000000
2.206398 82.000000
2.208462 82.000000
2.210526 82.000000
2.212590 82.000000
2.214654 82.000000
2.216718 81.000000
2.218782 81.000000
2.220846 81.000000
2.222910 81.000000
2.224974 81.000000
2.227038 81.000000
2.229102 81.000000
2.231166 81.000000
2.233230 81.000000
2.235294 81.000000
2.237358 81.000000
2.239422 81.000000
2.241486 81.000000
2.243550 81.000000
2.245614 81.000000
2.247678 81.000000
2.249742 81.000000
2.251806 81.000000
2.253870 81.000000
2.255934 81.000000
2.257998 81.000000
2.260062 81.000000
2.262126 81.000000
2.264190 81.000000
2.266254 81.000000
2.268318 81.000000
2.270382 81.000000
2.272446 81.000000
2.274510 81.000000
2.276574 82.000000
2.278638 82.000000
2.280702 82.000000
2.282766 82.000000
2.284830 82.000000
2.286894 84.000000
2.288958 84.000000
2.291022 84.000000
2.293086 84.000000
2.295150 84.000000
2.297214 84.000000
2.299278 84.000000
2.301342 84.000000
2.303406 84.000000
2.305470 83.000000
2.307534 83.000000
2.309598 82.000000
2.311662 82.000000
2.313725 82.000000
2.315789 82.000000
2.317853 82.000000
2.319917 81.000000
2.321981 81.000000
2.324045 81.000000
2.326109 81.000000
2.328173 81.000000
2.330237 82.000000
2.332301 82.000000
2.334365 82.000000
2.336429 82.000000
2.338493 82.000000
2.340557 82.000000
2.342621 82.000000
2.344685 82.000000
2.346749 82.000000
2.348813 82.000000
2.350877 82.000000
2.352941 82.000000
2.355005 82.000000
2.357069 82.000000
2.359133 82.000000
2.361197 82.000000
2.363261 82.000000
2.365325 82.000000
2.367389 82.000000
2.369453 82.000000
2.371517 82.000000
2.373581 82.000000
2.375645 83.000000
2.377709 83.000000
2.379773 83.000000
2.381837 83.000000
2.383901 83.000000
2.385965 83.000000
2.388029 83.000000
2.390093 83.000000
2.392157 83.000000
2.394221 83.000000
2.396285 83.000000
2.398349 83.000000
2.400413 84.000000
2.402477 84.000000
2.404541 84.000000
2.406605 84.000000
2.408669 84.000000
2.410733 84.000000
2.412797 84.000000
2.414861 84.000000
2.416925 84.000000
2.418989 84.000000
2.421053 83.000000
2.423117 83.000000
2.425181 83.000000
2.427245 83.000000
2.429309 83.000000
2.431373 84.000000
2.433437 86.000000
2.435501 86.000000
2.437564 86.000000
2.439628 86.000000
2.441692 85.000000
2.443756 85.000000
2.445820 84.000000
2.447884 84.000000
2.449948 83.000000
2.452012 83.000000
2.454076 83.000000
2.456140 83.000000
2.458204 83.000000
2.460268 84.000000
2.462332 84.000000
2.464396 84.000000
2.466460 84.000000
2.468524 84.000000
2.470588 84.000000
2.472652 84.000000
2.474716 84.000000
2.476780 84.000000
2.478844 84.000000
2.480908 84.000000
2.482972 84.000000
2.485036 85.000000
2.487100 85.000000
2.489164 85.000000
2.491228 85.000000
2.493292 85.000000
2.495356 86.000000
2.497420 86.000000
2.499484 87.000000
2.501548 87.000000
2.503612 87.000000
2.505676 87.000000
2.507740 87.000000
2.509804 87.000000
2.511868 87.000000
2.513932 87.000000
2.515996 87.000000
2.518060 88.000000
2.520124 88.000000
2.522188 89.000000
2.524252 89.000000
2.526316 89.000000
2.528380 90.000000
2.530444 90.000000
2.532508 91.000000
2.534572 91.000000
2.536636 91.000000
2.538700 91.000000
2.540764 91.000000
2.542828 92.000000
2.544892 93.000000
2.546956 94.000000
2.549020 95.000000
2.551084 96.000000
2.553148 97.000000
2.555212 97.000000
2.557276 97.000000
2.559340 97.000000
2.561404 97.000000
2.563467 98.000000
2.565531 99.000000
2.567595 102.000000
2.569659 103.000000
2.571723 103.000000
2.573787 104.000000
2.575851 105.000000
2.577915 107.000000
2.579979 110.000000
2.582043 111.000000
2.584107 113.000000
2.586171 116.000000
2.588235 125.000000
2.590299 173.000000
2.592363 287.000000
2.594427 322.000000
2.596491 313.000000
2.598555 303.000000
2.600619 199.000000
2.602683 144.000000
2.604747 133.000000
2.606811 131.000000
2.608875 132.000000
2.610939 144.000000
2.613003 168.000000
2.615067 345.000000
2.617131 591.000000
2.619195 663.000000
2.621259 705.000000
2.623323 618.000000
2.625387 311.000000
2.627451 183.000000
2.629515 158.000000
2.631579 152.000000
2.633643 137.000000
2.635707 138.000000
2.637771 148.000000
2.639835 208.000000
2.641899 245.000000
2.643963 537.000000
2.646027 665.000000
2.648091 660.000000
2.650155 390.000000
2.652219 219.000000
2.654283 188.000000
2.656347 133.000000
2.658411 117.000000
2.660475 113.000000
2.662539 111.000000
2.664603 113.000000
2.666667 151.000000
2.668731 249.000000
2.670795 281.000000
2.672859 267.000000
2.674923 193.000000
2.676987 167.000000
2.679051 114.000000
2.681115 101.000000
2.683179 93.000000
2.685243 92.000000
2.687307 92.000000
2.689370 91.000000
2.691434 90.000000
2.693498 87.000000
2.695562 87.000000
2.697626 87.000000
2.699690 87.000000
2.701754 87.000000
2.703818 87.000000
2.705882 87.000000
2.707946 87.000000
2.710010 86.000000
2.712074 86.000000
2.714138 85.000000
2.716202 85.000000
2.718266 85.000000
2.720330 85.000000
2.722394 85.000000
2.724458 85.000000
2.726522 85.000000
2.728586 85.000000
2.730650 85.000000
2.732714 85.000000
2.734778 85.000000
2.736842 85.000000
2.738906 85.000000
2.740970 84.000000
2.743034 84.000000
2.745098 84.000000
2.747162 84.000000
2.749226 84.000000
2.751290 84.000000
2.753354 84.000000
2.755418 84.000000
2.757482 84.000000
2.759546 84.000000
2.761610 84.000000
2.763674 84.000000
2.765738 84.000000
2.767802 84.000000
2.769866 84.000000
2.771930 84.000000
2.773994 84.000000
2.776058 84.000000
2.778122 84.000000
2.780186 84.000000
2.782250 84.000000
2.784314 84.000000
2.786378 84.000000
2.788442 84.000000
2.790506 84.000000
2.792570 84.000000
2.794634 84.000000
2.796698 84.000000
2.798762 84.000000
2.800826 84.000000
2.802890 84.000000
2.804954 84.000000
2.807018 84.000000
2.809082 84.000000
2.811146 84.000000
2.813209 84.000000
2.815273 84.000000
2.817337 84.000000
2.819401 84.000000
2.821465 84.000000
2.823529 84.000000
2.825593 85.000000
2.827657 86.000000
2.829721 86.000000
2.831785 84.000000
2.833849 84.000000
2.835913 84.000000
2.837977 84.000000
2.840041 84.000000
2.842105 84.000000
2.844169 84.000000
2.846233 84.000000
2.848297 84.000000
2.850361 84.000000
2.852425 86.000000
2.854489 86.000000
2.856553 85.000000
2.858617 84.000000
2.860681 84.000000
2.862745 84.000000
2.864809 83.000000
2.866873 83.000000
2.868937 83.000000
2.871001 83.000000
2.873065 83.000000
2.875129 83.000000
2.877193 83.000000
2.879257 83.000000
2.881321 83.000000
2.883385 83.000000
2.885449 83.000000
2.887513 83.000000
2.889577 83.000000
2.891641 83.000000
2.893705 83.000000
2.895769 83.000000
2.897833 82.000000
2.899897 82.000000
2.901961 82.000000
2.904025 82.000000
2.906089 82.000000
2.908153 82.000000
2.910217 82.000000
2.912281 82.000000
2.914345 82.000000
2.916409 82.000000
2.918473 82.000000
2.920537 82.000000
2.922601 82.000000
2.924665 82.000000
2.926729 82.000000
2.928793 82.000000
2.930857 82.000000
2.932921 82.000000
2.934985 82.000000
2.937049 82.000000
2.939112 83.000000
2.941176 83.000000
2.943240 83.000000
2.945304 83.000000
2.947368 83.000000
2.949432 83.000000
2.951496 83.000000
2.953560 83.000000
2.955624 82.000000
2.957688 82.000000
2.959752 82.000000
2.961816 82.000000
2.963880 82.000000
2.965944 82.000000
2.968008 82.000000
2.970072 83.000000
2.972136 83.000000
2.974200 83.000000
2.976264 83.000000
2.978328 83.000000
2.980392 83.000000
2.982456 83.000000
2.984520 82.000000
2.986584 82.000000
2.988648 82.000000
2.990712 82.000000
2.992776 82.000000
2.994840 82.000000
2.996904 82.000000
2.998968 82.000000
3.001032 82.000000
3.003096 82.000000
3.005160 82.000000
3.007224 82.000000
3.009288 81.000000
3.011352 81.000000
3.013416 81.000000
3.015480 81.000000
3.017544 81.000000
3.019608 81.000000
3.021672 81.000000
3.023736 81.000000
3.025800 81.000000
3.027864 81.000000
3.029928 82.000000
3.031992 82.000000
3.034056 82.000000
3.036120 82.000000
3.038184 82.000000
3.040248 82.000000
3.042312 82.000000
3.044376 82.000000
3.046440 82.000000
3.048504 82.000000
3.050568 81.000000
3.052632 81.000000
3.054696 81.000000
3.056760 81.000000
3.058824 81.000000
3.060888 82.000000
3.062951 82.000000
3.065015 82.000000
3.067079 82.000000
3.069143 82.000000
3.071207 82.000000
3.073271 82.000000
3.075335 82.000000
3.077399 82.000000
3.079463 82.000000
3.081527 82.000000
3.083591 82.000000
3.085655 82.000000
3.087719 82.000000
3.089783 82.000000
3.091847 82.000000
3.093911 82.000000
3.095975 82.000000
3.098039 82.000000
3.100103 82.000000
3.102167 82.000000
3.104231 82.000000
3.106295 82.000000
3.108359 82.000000
3.110423 81.000000
3.112487 81.000000
3.114551 81.000000
3.116615 81.000000
3.118679 81.000000
3.120743 82.000000
3.122807 82.000000
3.124871 82.000000
3.126935 82.000000
3.128999 82.000000
3.131063 82.000000
3.133127 82.000000
3.135191 82.000000
3.137255 82.000000
3.139319 82.000000
3.141383 81.000000
3.143447 81.000000
3.145511 81.000000
3.147575 81.000000
3.149639 81.000000
3.151703 82.000000
3.153767 82.000000
3.155831 82.000000
3.157895 82.000000
3.159959 82.000000
3.162023 82.000000
3.164087 82.000000
3.166151 82.000000
3.168215 82.000000
3.170279 82.000000
3.172343 82.000000
3.174407 82.000000
3.176471 82.000000
3.178535 82.000000
3.180599 82.000000
3.182663 82.000000
3.184727 82.000000
3.186791 82.000000
3.188854 82.000000
3.190918 82.000000
3.192982 82.000000
3.195046 82.000000
3.197110 82.000000
3.199174 82.000000
3.201238 81.000000
3.203302 81.000000
3.205366 81.000000
3.207430 81.000000
3.209494 81.000000
3.211558 82.000000
3.213622 82.000000
3.215686 82.000000
3.217750 82.000000
3.219814 82.000000
3.221878 82.000000
3.223942 82.000000
3.226006 82.000000
3.228070 82.000000
3.230134 82.000000
3.232198 81.000000
3.234262 81.000000
3.236326 81.000000
3.238390 81.000000
3.240454 81.000000
3.242518 81.000000
3.244582 81.000000
3.246646 81.000000
3.248710 81.000000
3.250774 81.000000
3.252838 81.000000
3.254902 81.000000
3.256966 81.000000
3.259030 81.000000
3.261094 82.000000
3.263158 82.000000
3.265222 82.000000
3.267286 82.000000
3.269350 82.000000
3.271414 82.000000
3.273478 82.000000
3.275542 82.000000
3.277606 82.000000
3.279670 82.000000
3.281734 82.000000
3.283798 82.000000
3.285862 82.000000
3.287926 82.000000
3.289990 82.000000
3.292054 82.000000
3.294118 82.000000
3.296182 82.000000
3.298246 82.000000
3.300310 82.000000
3.302374 81.000000
3.304438 81.000000
3.306502 81.000000
3.308566 81.000000
3.310630 81.000000
3.312693 82.000000
3.314757 82.000000
3.316821 82.000000
3.318885 82.000000
3.320949 82.000000
3.323013 82.000000
3.325077 82.000000
3.327141 82.000000
3.329205 82.000000
3.331269 82.000000
3.333333 81.000000
3.335397 81.000000
3.337461 81.000000
3.339525 81.000000
3.341589 81.000000
3.343653 81.000000
3.345717 81.000000
3.347781 81.000000
3.349845 81.000000
3.351909 81.000000
3.353973 81.000000
3.356037 81.000000
3.358101 81.000000
3.360165 81.000000
3.362229 81.000000
3.364293 81.000000
3.366357 81.000000
3.368421 81.000000
3.370485 81.000000
3.372549 81.000000
3.374613 81.000000
3.376677 81.000000
3.378741 81.000000
3.380805 81.000000
3.382869 81.000000
3.384933 81.000000
3.386997 81.000000
3.389061 81.000000
3.391125 81.000000
3.393189 81.000000
3.395253 81.000000
3.397317 81.000000
3.399381 81.000000
3.401445 81.000000
3.403509 81.000000
3.405573 81.000000
3.407637 81.000000
3.409701 81.000000
3.411765 81.000000
3.413829 81.000000
3.415893 81.000000
3.417957 81.000000
3.420021 81.000000
3.422085 81.000000
3.424149 81.000000
3.426213 81.000000
3.428277 81.000000
3.430341 81.000000
3.432405 81.000000
3.434469 81.000000
3.436533 81.000000
3.438596 81.000000
3.440660 81.000000
3.442724 81.000000
3.444788 81.000000
3.446852 81.000000
3.448916 81.000000
3.450980 81.000000
3.453044 82.000000
3.455108 82.000000
3.457172 82.000000
3.459236 82.000000
3.461300 82.000000
3.463364 82.000000
3.465428 82.000000
3.467492 82.000000
3.469556 82.000000
3.471620 82.000000
3.473684 82.000000
3.475748 82.000000
3.477812 82.000000
3.479876 82.000000
3.481940 82.000000
3.484004 81.000000
3.486068 81.000000
3.488132 81.000000
3.490196 81.000000
3.492260 81.000000
3.494324 82.000000
3.496388 82.000000
3.498452 82.000000
3.500516 82.000000
3.502580 82.000000
3.504644 82.000000
3.506708 82.000000
3.508772 82.000000
3.510836 82.000000
3.512900 82.000000
3.514964 81.000000
3.517028 81.000000
3.519092 81.000000
3.521156 81.000000
3.523220 81.000000
3.525284 81.000000
3.527348 81.000000
3.529412 81.000000
3.531476 81.000000
3.533540 81.000000
3.535604 81.000000
3.537668 81.000000
3.539732 81.000000
3.541796 81.000000
3.543860 81.000000
3.545924 81.000000
3.547988 81.000000
3.550052 81.000000
3.552116 81.000000
3.554180 81.000000
3.556244 81.000000
3.558308 81.000000
3.560372 81.000000
3.562436 81.000000
3.564499 81.000000
3.566563 81.000000
3.568627 81.000000
3.570691 81.000000
3.572755 81.000000
3.574819 81.000000
3.576883 81.000000
3.578947 81.000000
3.581011 81.000000
3.583075 81.000000
3.585139 81.000000
3.587203 81.000000
3.589267 81.000000
3.591331 81.000000
3.593395 81.000000
3.595459 81.000000
3.597523 81.000000
3.599587 81.000000
3.601651 81.000000
3.603715 81.000000
3.605779 82.000000
3.607843 82.000000
3.609907 82.000000
3.611971 82.000000
3.614035 82.000000
3.616099 82.000000
3.618163 82.000000
3.620227 82.000000
3.622291 82.000000
3.624355 82.000000
3.626419 81.000000
3.628483 81.000000
3.630547 81.000000
3.632611 81.000000
3.634675 81.000000
3.636739 81.000000
3.638803 81.000000
3.640867 81.000000
3.642931 81.000000
3.644995 81.000000
3.647059 81.000000
3.649123 81.000000
3.651187 81.000000
3.653251 81.000000
3.655315 81.000000
3.657379 81.000000
3.659443 81.000000
3.661507 81.000000
3.663571 81.000000
3.665635 81.000000
3.667699 81.000000
3.669763 81.000000
3.671827 81.000000
3.673891 81.000000
3.675955 81.000000
3.678019 81.000000
3.680083 81.000000
3.682147 81.000000
3.684211 81.000000
3.686275 81.000000
3.688338 81.000000
3.690402 81.000000
3.692466 81.000000
3.694530 81.000000
3.696594 82.000000
3.698658 82.000000
3.700722 82.000000
3.702786 82.000000
3.704850 82.000000
3.706914 82.000000
3.708978 82.000000
3.711042 82.000000
3.713106 82.000000
3.715170 82.000000
3.717234 82.000000
3.719298 82.000000
3.721362 82.000000
3.723426 82.000000
3.725490 82.000000
3.727554 82.000000
3.729618 82.000000
3.731682 82.000000
3.733746 82.000000
3.735810 81.000000
3.737874 81.000000
3.739938 81.000000
3.742002 81.000000
3.744066 81.000000
3.746130 81.000000
3.748194 81.000000
3.750258 81.000000
3.752322 81.000000
3.754386 81.000000
3.756450 81.000000
3.758514 81.000000
3.760578 81.000000
3.762642 81.000000
3.764706 81.000000
3.766770 82.000000
3.768834 82.000000
3.770898 82.000000
3.772962 82.000000
3.775026 82.000000
3.777090 82.000000
3.779154 82.000000
3.781218 82.000000
3.783282 82.000000
3.785346 82.000000
3.787410 81.000000
3.789474 81.000000
3.791538 81.000000
3.793602 81.000000
3.795666 81.000000
3.797730 81.000000
3.799794 81.000000
3.801858 81.000000
3.803922 81.000000
3.805986 81.000000
3.808050 81.000000
3.810114 81.000000
3.812178 81.000000
3.814241 81.000000
3.816305 81.000000
3.818369 81.000000
3.820433 81.000000
3.822497 81.000000
3.824561 81.000000
3.826625 81.000000
3.828689 81.000000
3.830753 81.000000
3.832817 81.000000
3.834881 81.000000
3.836945 81.000000
3.839009 81.000000
3.841073 81.000000
3.843137 81.000000
3.845201 81.000000
3.847265 81.000000
3.849329 81.000000
3.851393 81.000000
3.853457 81.000000
3.855521 81.000000
3.857585 81.000000
3.859649 81.000000
3.861713 81.000000
3.863777 81.000000
3.865841 81.000000
3.867905 81.000000
3.869969 81.000000
3.872033 81.000000
3.874097 81.000000
3.876161 81.000000
3.878225 81.000000
3.880289 81.000000
3.882353 81.000000
3.884417 81.000000
3.886481 81.000000
3.888545 81.000000
3.890609 81.000000
3.892673 81.000000
3.894737 81.000000
3.896801 81.000000
3.898865 81.000000
3.900929 81.000000
3.902993 81.000000
3.905057 81.000000
3.907121 81.000000
3.909185 81.000000
3.911249 81.000000
3.913313 81.000000
3.915377 81.000000
3.917441 81.000000
3.919505 81.000000
3.921569 81.000000
3.923633 81.000000
3.925697 81.000000
3.927761 81.000000
3.929825 81.000000
3.931889 81.000000
3.933953 81.000000
3.936017 81.000000
3.938080 81.000000
3.940144 81.000000
3.942208 81.000000
3.944272 81.000000
3.946336 81.000000
3.948400 81.000000
3.950464 81.000000
3.952528 81.000000
3.954592 81.000000
3.956656 81.000000
3.958720 81.000000
3.960784 81.000000
3.962848 81.000000
3.964912 81.000000
3.966976 81.000000
3.969040 81.000000
3.971104 81.000000
3.973168 81.000000
3.975232 81.000000
3.977296 81.000000
3.979360 81.000000
3.981424 81.000000
3.983488 81.000000
3.985552 81.000000
3.987616 81.000000
3.989680 81.000000
3.991744 81.000000
3.993808 81.000000
3.995872 81.000000
3.997936 81.000000
4.000000 81.000000
4.002064 81.000000
4.004128 81.000000
4.006192 81.000000
4.008256 81.000000
4.010320 81.000000
4.012384 81.000000
4.014448 81.000000
4.016512 81.000000
4.018576 81.000000
4.020640 81.000000
4.022704 81.000000
4.024768 81.000000
4.026832 81.000000
4.028896 81.000000
4.030960 81.000000
4.033024 81.000000
4.035088 81.000000
4.037152 81.000000
4.039216 81.000000
4.041280 81.000000
4.043344 81.000000
4.045408 81.000000
4.047472 81.000000
4.049536 81.000000
4.051600 81.000000
4.053664 81.000000
4.055728 81.000000
4.057792 81.000000
4.059856 81.000000
4.061920 81.000000
4.063983 81.000000
4.066047 81.000000
4.068111 81.000000
4.070175 81.000000
4.072239 81.000000
4.074303 81.000000
4.076367 81.000000
4.078431 81.000000
4.080495 81.000000
4.082559 81.000000
4.084623 81.000000
4.086687 81.000000
4.088751 81.000000
4.090815 81.000000
4.092879 81.000000
4.094943 81.000000
4.097007 81.000000
4.099071 81.000000
4.101135 81.000000
4.103199 81.000000
4.105263 81.000000
4.107327 81.000000
4.109391 81.000000
4.111455 81.000000
4.113519 81.000000
4.115583 81.000000
4.117647 81.000000
4.119711 82.000000
4.121775 82.000000
4.123839 82.000000
4.125903 82.000000
4.127967 82.000000
4.130031 82.000000
4.132095 82.000000
4.134159 82.000000
4.136223 82.000000
4.138287 82.000000
4.140351 81.000000
4.142415 81.000000
4.144479 81.000000
4.146543 81.000000
4.148607 81.000000
4.150671 81.000000
4.152735 81.000000
4.154799 81.000000
4.156863 81.000000
4.158927 81.000000
4.160991 81.000000
4.163055 81.000000
4.165119 81.000000
4.167183 81.000000
4.169247 81.000000
4.171311 81.000000
4.173375 81.000000
4.175439 81.000000
4.177503 81.000000
4.179567 81.000000
4.181631 81.000000
4.183695 81.000000
4.185759 81.000000
4.187822 81.000000
4.189886 81.000000
4.191950 81.000000
4.194014 81.000000
4.196078 81.000000
4.198142 81.000000
4.200206 81.000000
4.202270 81.000000
4.204334 81.000000
4.206398 81.000000
4.208462 81.000000
4.210526 81.000000
4.212590 81.000000
4.214654 81.000000
4.216718 81.000000
4.218782 81.000000
4.220846 81.000000
4.222910 81.000000
4.224974 81.000000
4.227038 81.000000
4.229102 81.000000
4.231166 81.000000
4.233230 81.000000
4.235294 81.000000
4.237358 81.000000
4.239422 81.000000
4.241486 81.000000
4.243550 81.000000
4.245614 81.000000
4.247678 81.000000
4.249742 81.000000
4.251806 81.000000
4.253870 81.000000
4.255934 81.000000
4.257998 81.000000
4.260062 81.000000
4.262126 81.000000
4.264190 81.000000
4.266254 81.000000
4.268318 81.000000
4.270382 81.000000
4.272446 81.000000
4.274510 81.000000
4.276574 81.000000
4.278638 81.000000
4.280702 81.000000
4.282766 81.000000
4.284830 81.000000
4.286894 81.000000
4.288958 81.000000
4.291022 81.000000
4.293086 81.000000
4.295150 81.000000
4.297214 81.000000
4.299278 81.000000
4.301342 81.000000
4.303406 81.000000
4.305470 81.000000
4.307534 81.000000
4.309598 81.000000
4.311662 81.000000
4.313725 81.000000
4.315789 81.000000
4.317853 81.000000
4.319917 81.000000
4.321981 81.000000
4.324045 81.000000
4.326109 81.000000
4.328173 81.000000
4.330237 81.000000
4.332301 81.000000
4.334365 81.000000
4.336429 81.000000
4.338493 81.000000
4.340557 81.000000
4.342621 81.000000
4.344685 81.000000
4.346749 81.000000
4.348813 81.000000
4.350877 81.000000
4.352941 81.000000
4.355005 81.000000
4.357069 81.000000
4.359133 81.000000
4.361197 81.000000
4.363261 81.000000
4.365325 82.000000
4.367389 82.000000
4.369453 79.000000
4.371517 79.000000
4.373581 79.000000
4.375645 79.000000
4.377709 78.000000
4.379773 85.000000
4.381837 83.000000
4.383901 82.000000
4.385965 84.000000
4.388029 84.000000
4.390093 83.000000
4.392157 82.000000
4.394221 82.000000
4.396285 82.000000
4.398349 82.000000
4.400413 82.000000
4.402477 82.000000
4.404541 82.000000
4.406605 82.000000
4.408669 82.000000
4.410733 82.000000
4.412797 82.000000
4.414861 82.000000
4.416925 82.000000
4.418989 82.000000
4.421053 82.000000
4.423117 82.000000
4.425181 82.000000
4.427245 82.000000
4.429309 81.000000
4.431373 81.000000
4.433437 81.000000
4.435501 81.000000
4.437564 81.000000
4.439628 81.000000
4.441692 81.000000
4.443756 81.000000
4.445820 81.000000
4.447884 81.000000
4.449948 81.000000
4.452012 81.000000
4.454076 81.000000
4.456140 81.000000
4.458204 81.000000
4.460268 81.000000
4.462332 81.000000
4.464396 81.000000
4.466460 81.000000
4.468524 81.000000
4.470588 81.000000
4.472652 81.000000
4.474716 81.000000
4.476780 81.000000
4.478844 81.000000
4.480908 81.000000
4.482972 81.000000
4.485036 81.000000
4.487100 81.000000
4.489164 81.000000
4.491228 81.000000
4.493292 81.000000
4.495356 81.000000
4.497420 81.000000
4.499484 81.000000
4.501548 81.000000
4.503612 81.000000
4.505676 81.000000
4.507740 81.000000
4.509804 81.000000
4.511868 81.000000
4.513932 81.000000
4.515996 81.000000
4.518060 81.000000
4.520124 81.000000
4.522188 81.000000
4.524252 81.000000
4.526316 81.000000
4.528380 81.000000
4.530444 81.000000
4.532508 81.000000
4.534572 81.000000
4.536636 81.000000
4.538700 81.000000
4.540764 81.000000
4.542828 81.000000
4.544892 81.000000
4.546956 81.000000
4.549020 81.000000
4.551084 81.000000
4.553148 81.000000
4.555212 81.000000
4.557276 81.000000
4.559340 81.000000
4.561404 81.000000
4.563467 81.000000
4.565531 81.000000
4.567595 81.000000
4.569659 81.000000
4.571723 81.000000
4.573787 81.000000
4.575851 81.000000
4.577915 81.000000
4.579979 81.000000
4.582043 81.000000
4.584107 81.000000
4.586171 81.000000
4.588235 81.000000
4.590299 81.000000
4.592363 81.000000
4.594427 81.000000
4.596491 81.000000
4.598555 81.000000
4.600619 81.000000
4.602683 81.000000
4.604747 81.000000
4.606811 81.000000
4.608875 81.000000
4.610939 81.000000
4.613003 81.000000
4.615067 81.000000
4.617131 81.000000
4.619195 81.000000
4.621259 81.000000
4.623323 81.000000
4.625387 81.000000
4.627451 81.000000
4.629515 81.000000
4.631579 81.000000
4.633643 81.000000
4.635707 81.000000
4.637771 81.000000
4.639835 81.000000
4.641899 81.000000
4.643963 81.000000
4.646027 81.000000
4.648091 81.000000
4.650155 81.000000
4.652219 81.000000
4.654283 81.000000
4.656347 81.000000
4.658411 81.000000
4.660475 81.000000
4.662539 81.000000
4.664603 81.000000
4.666667 81.000000
4.668731 81.000000
4.670795 81.000000
4.672859 81.000000
4.674923 81.000000
4.676987 81.000000
4.679051 81.000000
4.681115 81.000000
4.683179 81.000000
4.685243 81.000000
4.687307 81.000000
4.689370 81.000000
4.691434 81.000000
4.693498 81.000000
4.695562 81.000000
4.697626 81.000000
4.699690 81.000000
4.701754 81.000000
4.703818 81.000000
4.705882 81.000000
4.707946 81.000000
4.710010 81.000000
4.712074 81.000000
4.714138 81.000000
4.716202 81.000000
4.718266 81.000000
4.720330 81.000000
4.722394 81.000000
4.724458 81.000000
4.726522 81.000000
4.728586 81.000000
4.730650 81.000000
4.732714 81.000000
4.734778 81.000000
4.736842 81.000000
4.738906 81.000000
4.740970 81.000000
4.743034 81.000000
4.745098 81.000000
4.747162 81.000000
4.749226 81.000000
4.751290 81.000000
4.753354 81.000000
4.755418 81.000000
4.757482 81.000000
4.759546 81.000000
4.761610 81.000000
4.763674 81.000000
4.765738 81.000000
4.767802 81.000000
4.769866 81.000000
4.771930 81.000000
4.773994 81.000000
4.776058 81.000000
4.778122 81.000000
4.780186 81.000000
4.782250 81.000000
4.784314 81.000000
4.786378 81.000000
4.788442 81.000000
4.790506 81.000000
4.792570 81.000000
4.794634 81.000000
4.796698 81.000000
4.798762 81.000000
4.800826 81.000000
4.802890 81.000000
4.804954 81.000000
4.807018 81.000000
4.809082 81.000000
4.811146 81.000000
4.813209 81.000000
4.815273 81.000000
4.817337 81.000000
4.819401 81.000000
4.821465 81.000000
4.823529 81.000000
4.825593 81.000000
4.827657 81.000000
4.829721 81.000000
4.831785 81.000000
4.833849 81.000000
4.835913 81.000000
4.837977 81.000000
4.840041 81.000000
4.842105 81.000000
4.844169 81.000000
4.846233 81.000000
4.848297 81.000000
4.850361 81.000000
4.852425 81.000000
4.854489 81.000000
4.856553 81.000000
4.858617 81.000000
4.860681 81.000000
4.862745 81.000000
4.864809 81.000000
4.866873 81.000000
4.868937 81.000000
4.871001 81.000000
4.873065 81.000000
4.875129 81.000000
4.877193 81.000000
4.879257 81.000000
4.881321 81.000000
4.883385 81.000000
4.885449 81.000000
4.887513 81.000000
4.889577 81.000000
4.891641 81.000000
4.893705 81.000000
4.895769 81.000000
4.897833 81.000000
4.899897 81.000000
4.901961 81.000000
4.904025 81.000000
4.906089 81.000000
4.908153 81.000000
4.910217 81.000000
4.912281 81.000000
4.914345 81.000000
4.916409 81.000000
4.918473 81.000000
4.920537 81.000000
4.922601 81.000000
4.924665 81.000000
4.926729 81.000000
4.928793 81.000000
4.930857 81.000000
4.932921 81.000000
4.934985 81.000000
4.937049 81.000000
4.939112 81.000000
4.941176 81.000000
4.943240 81.000000
4.945304 81.000000
4.947368 81.000000
4.949432 81.000000
4.951496 81.000000
4.953560 81.000000
4.955624 81.000000
4.957688 81.000000
4.959752 81.000000
4.961816 81.000000
4.963880 81.000000
4.965944 81.000000
4.968008 81.000000
4.970072 81.000000
4.972136 81.000000
4.974200 81.000000
4.976264 81.000000
4.978328 81.000000
4.980392 81.000000
4.982456 81.000000
4.984520 81.000000
4.986584 81.000000
4.988648 81.000000
4.990712 81.000000
4.992776 81.000000
4.994840 81.000000
4.996904 81.000000
4.998968 81.000000
5.001032 81.000000
5.003096 81.000000
5.005160 81.000000
5.007224 81.000000
5.009288 81.000000
5.011352 81.000000
5.013416 81.000000
5.015480 81.000000
5.017544 81.000000
5.019608 81.000000
5.021672 81.000000
5.023736 81.000000
5.025800 81.000000
5.027864 81.000000
5.029928 81.000000
5.031992 81.000000
5.034056 81.000000
5.036120 81.000000
5.038184 81.000000
5.040248 81.000000
5.042312 81.000000
5.044376 81.000000
5.046440 81.000000
5.048504 81.000000
5.050568 82.000000
5.052632 82.000000
5.054696 82.000000
5.056760 82.000000
5.058824 82.000000
5.060888 82.000000
5.062951 82.000000
5.065015 82.000000
5.067079 82.000000
5.069143 81.000000
5.071207 81.000000
5.073271 81.000000
5.075335 81.000000
5.077399 81.000000
5.079463 81.000000
5.081527 81.000000
5.083591 81.000000
5.085655 81.000000
5.087719 81.000000
5.089783 81.000000
5.091847 81.000000
5.093911 81.000000
5.095975 81.000000
5.098039 81.000000
5.100103 81.000000
5.102167 81.000000
5.104231 81.000000
5.106295 81.000000
5.108359 81.000000
5.110423 81.000000
5.112487 81.000000
5.114551 81.000000
5.116615 81.000000
5.118679 81.000000
5.120743 81.000000
5.122807 81.000000
5.124871 81.000000
5.126935 81.000000
5.128999 81.000000
5.131063 81.000000
5.133127 81.000000
5.135191 81.000000
5.137255 81.000000
5.139319 81.000000
5.141383 81.000000
5.143447 81.000000
5.145511 81.000000
5.147575 81.000000
5.149639 81.000000
5.151703 81.000000
5.153767 81.000000
5.155831 81.000000
5.157895 81.000000
5.159959 81.000000
5.162023 81.000000
5.164087 81.000000
5.166151 81.000000
5.168215 81.000000
5.170279 81.000000
5.172343 81.000000
5.174407 81.000000
5.176471 81.000000
5.178535 81.000000
5.180599 81.000000
5.182663 81.000000
5.184727 81.000000
5.186791 81.000000
5.188854 81.000000
5.190918 81.000000
5.192982 81.000000
5.195046 81.000000
5.197110 81.000000
5.199174 81.000000
5.201238 81.000000
5.203302 81.000000
5.205366 81.000000
5.207430 81.000000
5.209494 81.000000
5.211558 81.000000
5.213622 81.000000
5.215686 81.000000
5.217750 81.000000
5.219814 81.000000
5.221878 81.000000
5.223942 81.000000
5.226006 81.000000
5.228070 81.000000
5.230134 81.000000
5.232198 81.000000
5.234262 81.000000
5.236326 81.000000
5.238390 81.000000
5.240454 81.000000
5.242518 81.000000
5.244582 81.000000
5.246646 81.000000
5.248710 81.000000
5.250774 81.000000
5.252838 81.000000
5.254902 81.000000
5.256966 81.000000
5.259030 81.000000
5.261094 81.000000
5.263158 81.000000
5.265222 81.000000
5.267286 81.000000
5.269350 81.000000
5.271414 81.000000
5.273478 81.000000
5.275542 81.000000
5.277606 81.000000
5.279670 81.000000
5.281734 81.000000
5.283798 81.000000
5.285862 81.000000
5.287926 81.000000
5.289990 81.000000
5.292054 81.000000
5.294118 81.000000
5.296182 81.000000
5.298246 81.000000
5.300310 81.000000
5.302374 81.000000
5.304438 81.000000
5.306502 81.000000
5.308566 81.000000
5.310630 81.000000
5.312693 81.000000
5.314757 81.000000
5.316821 81.000000
5.318885 81.000000
5.320949 81.000000
5.323013 81.000000
5.325077 81.000000
5.327141 81.000000
5.329205 81.000000
5.331269 81.000000
5.333333 81.000000
5.335397 81.000000
5.337461 81.000000
5.339525 81.000000
5.341589 81.000000
5.343653 82.000000
5.345717 82.000000
5.347781 82.000000
5.349845 82.000000
5.351909 82.000000
5.353973 82.000000
5.356037 82.000000
5.358101 82.000000
5.360165 82.000000
5.362229 81.000000
5.364293 81.000000
5.366357 81.000000
5.368421 81.000000
5.370485 81.000000
5.372549 81.000000
5.374613 81.000000
5.376677 81.000000
5.378741 81.000000
5.380805 81.000000
5.382869 82.000000
5.384933 82.000000
5.386997 82.000000
5.389061 82.000000
5.391125 82.000000
5.393189 82.000000
5.395253 82.000000
5.397317 82.000000
5.399381 82.000000
5.401445 82.000000
5.403509 81.000000
5.405573 81.000000
5.407637 81.000000
5.409701 81.000000
5.411765 81.000000
5.413829 81.000000
5.415893 81.000000
5.417957 81.000000
5.420021 81.000000
5.422085 81.000000
5.424149 81.000000
5.426213 81.000000
5.428277 81.000000
5.430341 81.000000
5.432405 81.000000
5.434469 81.000000
5.436533 81.000000
5.438596 81.000000
5.440660 81.000000
5.442724 81.000000
5.444788 81.000000
5.446852 81.000000
5.448916 81.000000
5.450980 81.000000
5.453044 81.000000
5.455108 81.000000
5.457172 81.000000
5.459236 81.000000
5.461300 81.000000
5.463364 81.000000
5.465428 81.000000
5.467492 81.000000
5.469556 81.000000
5.471620 81.000000
5.473684 82.000000
5.475748 82.000000
5.477812 82.000000
5.479876 82.000000
5.481940 82.000000
5.484004 82.000000
5.486068 82.000000
5.488132 82.000000
5.490196 82.000000
5.492260 82.000000
5.494324 81.000000
5.496388 81.000000
5.498452 81.000000
5.500516 81.000000
5.502580 81.000000
5.504644 81.000000
5.506708 81.000000
5.508772 81.000000
5.510836 81.000000
5.512900 81.000000
5.514964 81.000000
5.517028 81.000000
5.519092 81.000000
5.521156 81.000000
5.523220 81.000000
5.525284 81.000000
5.527348 81.000000
5.529412 81.000000
5.531476 81.000000
5.533540 81.000000
5.535604 81.000000
5.537668 81.000000
5.539732 81.000000
5.541796 81.000000
5.543860 81.000000
5.545924 81.000000
5.547988 81.000000
5.550052 81.000000
5.552116 81.000000
5.554180 81.000000
5.556244 81.000000
5.558308 81.000000
5.560372 81.000000
5.562436 81.000000
5.564499 81.000000
5.566563 81.000000
5.568627 81.000000
5.570691 81.000000
5.572755 81.000000
5.574819 81.000000
5.576883 81.000000
5.578947 81.000000
5.581011 81.000000
5.583075 81.000000
5.585139 81.000000
5.587203 81.000000
5.589267 81.000000
5.591331 81.000000
5.593395 81.000000
5.595459 81.000000
5.597523 81.000000
5.599587 81.000000
5.601651 81.000000
5.603715 81.000000
5.605779 81.000000
5.607843 81.000000
5.609907 81.000000
5.611971 81.000000
5.614035 81.000000
5.616099 81.000000
5.618163 81.000000
5.620227 81.000000
5.622291 81.000000
5.624355 81.000000
5.626419 81.000000
5.628483 81.000000
5.630547 81.000000
5.632611 81.000000
5.634675 81.000000
5.636739 81.000000
5.638803 81.000000
5.640867 81.000000
5.642931 81.000000
5.644995 81.000000
5.647059 81.000000
5.649123 81.000000
5.651187 81.000000
5.653251 81.000000
5.655315 81.000000
5.657379 81.000000
5.659443 81.000000
5.661507 81.000000
5.663571 81.000000
5.665635 81.000000
5.667699 81.000000
5.669763 81.000000
5.671827 81.000000
5.673891 81.000000
5.675955 81.000000
5.678019 81.000000
5.680083 81.000000
5.682147 81.000000
5.684211 81.000000
5.686275 81.000000
5.688338 81.000000
5.690402 81.000000
5.692466 81.000000
5.694530 81.000000
5.696594 81.000000
5.698658 81.000000
5.700722 81.000000
5.702786 81.000000
5.704850 81.000000
5.706914 81.000000
5.708978 81.000000
5.711042 81.000000
5.713106 81.000000
5.715170 81.000000
5.717234 81.000000
5.719298 81.000000
5.721362 81.000000
5.723426 81.000000
5.725490 81.000000
5.727554 81.000000
5.729618 81.000000
5.731682 81.000000
5.733746 81.000000
5.735810 81.000000
5.737874 81.000000
5.739938 81.000000
5.742002 81.000000
5.744066 81.000000
5.746130 81.000000
5.748194 81.000000
5.750258 81.000000
5.752322 81.000000
5.754386 81.000000
5.756450 81.000000
5.758514 81.000000
5.760578 81.000000
5.762642 81.000000
5.764706 81.000000
5.766770 81.000000
5.768834 81.000000
5.770898 81.000000
5.772962 81.000000
5.775026 81.000000
5.777090 81.000000
5.779154 81.000000
5.781218 81.000000
5.783282 81.000000
5.785346 81.000000
5.787410 81.000000
5.789474 81.000000
5.791538 81.000000
5.793602 81.000000
5.795666 81.000000
5.797730 81.000000
5.799794 81.000000
5.801858 81.000000
5.803922 81.000000
5.805986 81.000000
5.808050 81.000000
5.810114 81.000000
5.812178 81.000000
5.814241 81.000000
5.816305 81.000000
5.818369 81.000000
5.820433 81.000000
5.822497 81.000000
5.824561 81.000000
5.826625 81.000000
5.828689 81.000000
5.830753 81.000000
5.832817 81.000000
5.834881 81.000000
5.836945 81.000000
5.839009 81.000000
5.841073 81.000000
5.843137 81.000000
5.845201 81.000000
5.847265 81.000000
5.849329 81.000000
5.851393 81.000000
5.853457 81.000000
5.855521 81.000000
5.857585 81.000000
5.859649 81.000000
5.861713 81.000000
5.863777 81.000000
5.865841 81.000000
5.867905 81.000000
5.869969 81.000000
5.872033 81.000000
5.874097 81.000000
5.876161 81.000000
5.878225 81.000000
5.880289 81.000000
5.882353 81.000000
5.884417 81.000000
5.886481 81.000000
5.888545 81.000000
5.890609 81.000000
5.892673 81.000000
5.894737 81.000000
5.896801 81.000000
5.898865 81.000000
5.900929 81.000000
5.902993 81.000000
5.905057 81.000000
5.907121 81.000000
5.909185 81.000000
5.911249 81.000000
5.913313 81.000000
5.915377 81.000000
5.917441 81.000000
5.919505 81.000000
5.921569 81.000000
5.923633 81.000000
5.925697 81.000000
5.927761 81.000000
5.929825 81.000000
5.931889 81.000000
5.933953 81.000000
5.936017 81.000000
5.938080 81.000000
5.940144 81.000000
5.942208 81.000000
5.944272 81.000000
5.946336 81.000000
5.948400 81.000000
5.950464 81.000000
5.952528 81.000000
5.954592 81.000000
5.956656 81.000000
5.958720 81.000000
5.960784 81.000000
5.962848 81.000000
5.964912 81.000000
5.966976 81.000000
5.969040 81.000000
5.971104 81.000000
5.973168 81.000000
5.975232 81.000000
5.977296 81.000000
5.979360 81.000000
5.981424 81.000000
5.983488 81.000000
5.985552 81.000000
5.987616 81.000000
5.989680 81.000000
5.991744 81.000000
5.993808 81.000000
5.995872 81.000000
5.997936 81.000000
6.000000 81.000000
6.002064 81.000000
6.004128 81.000000
6.006192 81.000000
6.008256 81.000000
6.010320 81.000000
6.012384 81.000000
6.014448 81.000000
6.016512 81.000000
6.018576 81.000000
6.020640 81.000000
6.022704 81.000000
6.024768 81.000000
6.026832 81.000000
6.028896 81.000000
6.030960 81.000000
6.033024 81.000000
6.035088 81.000000
6.037152 81.000000
6.039216 81.000000
6.041280 81.000000
6.043344 81.000000
6.045408 81.000000
6.047472 81.000000
6.049536 81.000000
6.051600 81.000000
6.053664 81.000000
6.055728 81.000000
6.057792 81.000000
6.059856 80.000000
6.061920 80.000000
6.063983 80.000000
6.066047 80.000000
6.068111 80.000000
6.070175 81.000000
6.072239 81.000000
6.074303 81.000000
6.076367 81.000000
6.078431 81.000000
6.080495 81.000000
6.082559 81.000000
6.084623 81.000000
6.086687 81.000000
6.088751 81.000000
6.090815 81.000000
6.092879 81.000000
6.094943 81.000000
6.097007 81.000000
6.099071 81.000000
6.101135 81.000000
6.103199 81.000000
6.105263 81.000000
6.107327 81.000000
6.109391 81.000000
6.111455 81.000000
6.113519 81.000000
6.115583 81.000000
6.117647 81.000000
6.119711 81.000000
6.121775 81.000000
6.123839 81.000000
6.125903 81.000000
6.127967 81.000000
6.130031 81.000000
6.132095 81.000000
6.134159 81.000000
6.136223 81.000000
6.138287 81.000000
6.140351 81.000000
6.142415 81.000000
6.144479 81.000000
6.146543 81.000000
6.148607 81.000000
6.150671 81.000000
6.152735 81.000000
6.154799 81.000000
6.156863 81.000000
6.158927 81.000000
6.160991 81.000000
6.163055 81.000000
6.165119 81.000000
6.167183 81.000000
6.169247 81.000000
6.171311 81.000000
6.173375 81.000000
6.175439 81.000000
6.177503 81.000000
6.179567 81.000000
6.181631 81.000000
6.183695 81.000000
6.185759 81.000000
6.187822 81.000000
6.189886 81.000000
6.191950 81.000000
6.194014 81.000000
6.196078 81.000000
6.198142 81.000000
6.200206 81.000000
6.202270 81.000000
6.204334 81.000000
6.206398 81.000000
6.208462 81.000000
6.210526 81.000000
6.212590 81.000000
6.214654 81.000000
6.216718 81.000000
6.218782 81.000000
6.220846 81.000000
6.222910 81.000000
6.224974 81.000000
6.227038 81.000000
6.229102 81.000000
6.231166 81.000000
6.233230 81.000000
6.235294 81.000000
6.237358 81.000000
6.239422 81.000000
6.241486 81.000000
6.243550 81.000000
6.245614 81.000000
6.247678 81.000000
6.249742 81.000000
6.251806 81.000000
6.253870 81.000000
6.255934 81.000000
6.257998 81.000000
6.260062 81.000000
6.262126 81.000000
6.264190 81.000000
6.266254 81.000000
6.268318 81.000000
6.270382 81.000000
6.272446 81.000000
6.274510 81.000000
6.276574 81.000000
6.278638 81.000000
6.280702 81.000000
6.282766 81.000000
6.284830 81.000000
6.286894 81.000000
6.288958 81.000000
6.291022 81.000000
6.293086 81.000000
6.295150 81.000000
6.297214 81.000000
6.299278 81.000000
6.301342 81.000000
6.303406 81.000000
6.305470 81.000000
6.307534 81.000000
6.309598 81.000000
6.311662 81.000000
6.313725 81.000000
6.315789 81.000000
6.317853 81.000000
6.319917 81.000000
6.321981 81.000000
6.324045 81.000000
6.326109 81.000000
6.328173 81.000000
6.330237 81.000000
6.332301 81.000000
6.334365 81.000000
6.336429 81.000000
6.338493 81.000000
6.340557 81.000000
6.342621 81.000000
6.344685 81.000000
6.346749 81.000000
6.348813 81.000000
6.350877 81.000000
6.352941 81.000000
6.355005 81.000000
6.357069 81.000000
6.359133 81.000000
6.361197 81.000000
6.363261 81.000000
6.365325 81.000000
6.367389 81.000000
6.369453 81.000000
6.371517 81.000000
6.373581 81.000000
6.375645 81.000000
6.377709 81.000000
6.379773 81.000000
6.381837 81.000000
6.383901 81.000000
6.385965 81.000000
6.388029 81.000000
6.390093 81.000000
6.392157 81.000000
6.394221 81.000000
6.396285 81.000000
6.398349 81.000000
6.400413 81.000000
6.402477 81.000000
6.404541 81.000000
6.406605 81.000000
6.408669 81.000000
6.410733 81.000000
6.412797 81.000000
6.414861 81.000000
6.416925 81.000000
6.418989 81.000000
6.421053 81.000000
6.423117 81.000000
6.425181 81.000000
6.427245 81.000000
6.429309 81.000000
6.431373 81.000000
6.433437 81.000000
6.435501 81.000000
6.437564 81.000000
6.439628 81.000000
6.441692 81.000000
6.443756 81.000000
6.445820 81.000000
6.447884 81.000000
6.449948 81.000000
6.452012 81.000000
6.454076 81.000000
6.456140 81.000000
6.458204 81.000000
6.460268 81.000000
6.462332 81.000000
6.464396 81.000000
6.466460 81.000000
6.468524 81.000000
6.470588 81.000000
6.472652 81.000000
6.474716 81.000000
6.476780 81.000000
6.478844 81.000000
6.480908 81.000000
6.482972 81.000000
6.485036 81.000000
6.487100 81.000000
6.489164 81.000000
6.491228 81.000000
6.493292 81.000000
6.495356 81.000000
6.497420 81.000000
6.499484 81.000000
6.501548 81.000000
6.503612 81.000000
6.505676 81.000000
6.507740 81.000000
6.509804 81.000000
6.511868 81.000000
6.513932 81.000000
6.515996 81.000000
6.518060 81.000000
6.520124 81.000000
6.522188 81.000000
6.524252 81.000000
6.526316 81.000000
6.528380 81.000000
6.530444 81.000000
6.532508 81.000000
6.534572 81.000000
6.536636 81.000000
6.538700 81.000000
6.540764 81.000000
6.542828 81.000000
6.544892 81.000000
6.546956 81.000000
6.549020 81.000000
6.551084 81.000000
6.553148 81.000000
6.555212 81.000000
6.557276 81.000000
6.559340 81.000000
6.561404 81.000000
6.563467 81.000000
6.565531 81.000000
6.567595 81.000000
6.569659 81.000000
6.571723 81.000000
6.573787 81.000000
6.575851 81.000000
6.577915 81.000000
6.579979 81.000000
6.582043 81.000000
6.584107 81.000000
6.586171 81.000000
6.588235 81.000000
6.590299 81.000000
6.592363 81.000000
6.594427 81.000000
6.596491 81.000000
6.598555 81.000000
6.600619 81.000000
6.602683 81.000000
6.604747 81.000000
6.606811 81.000000
6.608875 81.000000
6.610939 81.000000
6.613003 81.000000
6.615067 81.000000
6.617131 81.000000
6.619195 81.000000
6.621259 81.000000
6.623323 81.000000
6.625387 81.000000
6.627451 81.000000
6.629515 81.000000
6.631579 81.000000
6.633643 81.000000
6.635707 81.000000
6.637771 81.000000
6.639835 81.000000
6.641899 81.000000
6.643963 81.000000
6.646027 81.000000
6.648091 81.000000
6.650155 81.000000
6.652219 81.000000
6.654283 81.000000
6.656347 81.000000
6.658411 81.000000
6.660475 81.000000
6.662539 81.000000
6.664603 81.000000
6.666667 81.000000
6.668731 81.000000
6.670795 81.000000
6.672859 81.000000
6.674923 81.000000
6.676987 81.000000
6.679051 81.000000
6.681115 81.000000
6.683179 81.000000
6.685243 81.000000
6.687307 81.000000
6.689370 81.000000
6.691434 81.000000
6.693498 81.000000
6.695562 81.000000
6.697626 81.000000
6.699690 81.000000
6.701754 81.000000
6.703818 81.000000
6.705882 81.000000
6.707946 81.000000
6.710010 81.000000
6.712074 81.000000
6.714138 81.000000
6.716202 81.000000
6.718266 81.000000
6.720330 81.000000
6.722394 81.000000
6.724458 81.000000
6.726522 81.000000
6.728586 81.000000
6.730650 81.000000
6.732714 81.000000
6.734778 81.000000
6.736842 81.000000
6.738906 81.000000
6.740970 81.000000
6.743034 81.000000
6.745098 81.000000
6.747162 81.000000
6.749226 81.000000
6.751290 81.000000
6.753354 81.000000
6.755418 81.000000
6.757482 81.000000
6.759546 81.000000
6.761610 81.000000
6.763674 81.000000
6.765738 81.000000
6.767802 81.000000
6.769866 81.000000
6.771930 81.000000
6.773994 81.000000
6.776058 81.000000
6.778122 81.000000
6.780186 81.000000
6.782250 81.000000
6.784314 81.000000
6.786378 81.000000
6.788442 81.000000
6.790506 81.000000
6.792570 81.000000
6.794634 81.000000
6.796698 82.000000
6.798762 82.000000
6.800826 82.000000
6.802890 82.000000
6.804954 82.000000
6.807018 82.000000
6.809082 82.000000
6.811146 82.000000
6.813209 82.000000
6.815273 82.000000
6.817337 81.000000
6.819401 81.000000
6.821465 81.000000
6.823529 81.000000
6.825593 81.000000
6.827657 82.000000
6.829721 82.000000
6.831785 82.000000
6.833849 82.000000
6.835913 82.000000
6.837977 82.000000
6.840041 82.000000
6.842105 82.000000
6.844169 82.000000
6.846233 82.000000
6.848297 82.000000
6.850361 82.000000
6.852425 82.000000
6.854489 82.000000
6.856553 82.000000
6.858617 82.000000
6.860681 82.000000
6.862745 82.000000
6.864809 82.000000
6.866873 83.000000
6.868937 83.000000
6.871001 83.000000
6.873065 83.000000
6.875129 83.000000
6.877193 84.000000
6.879257 84.000000
6.881321 84.000000
6.883385 84.000000
6.885449 84.000000
6.887513 84.000000
6.889577 84.000000
6.891641 84.000000
6.893705 84.000000
6.895769 84.000000
6.897833 84.000000
6.899897 84.000000
6.901961 85.000000
6.904025 85.000000
6.906089 85.000000
6.908153 85.000000
6.910217 85.000000
6.912281 85.000000
6.914345 85.000000
6.916409 84.000000
6.918473 84.000000
6.920537 84.000000
6.922601 84.000000
6.924665 84.000000
6.926729 84.000000
6.928793 84.000000
6.930857 84.000000
6.932921 84.000000
6.934985 84.000000
6.937049 84.000000
6.939112 84.000000
6.941176 84.000000
6.943240 84.000000
6.945304 84.000000
6.947368 84.000000
6.949432 84.000000
6.951496 84.000000
6.953560 84.000000
6.955624 85.000000
6.957688 85.000000
6.959752 85.000000
6.961816 85.000000
6.963880 85.000000
6.965944 86.000000
6.968008 86.000000
6.970072 86.000000
6.972136 86.000000
6.974200 86.000000
6.976264 86.000000
6.978328 86.000000
6.980392 86.000000
6.982456 86.000000
6.984520 86.000000
6.986584 87.000000
6.988648 87.000000
6.990712 88.000000
6.992776 88.000000
6.994840 88.000000
6.996904 88.000000
6.998968 87.000000
7.001032 87.000000
7.003096 87.000000
7.005160 87.000000
7.007224 87.000000
7.009288 87.000000
7.011352 88.000000
7.013416 88.000000
7.015480 89.000000
7.017544 89.000000
7.019608 89.000000
7.021672 87.000000
7.023736 87.000000
7.025800 87.000000
7.027864 87.000000
7.029928 87.000000
7.031992 87.000000
7.034056 87.000000
7.036120 87.000000
7.038184 87.000000
7.040248 87.000000
7.042312 88.000000
7.044376 89.000000
7.046440 89.000000
7.048504 90.000000
7.050568 91.000000
7.052632 91.000000
7.054696 92.000000
7.056760 93.000000
7.058824 93.000000
7.060888 93.000000
7.062951 94.000000
7.065015 94.000000
7.067079 96.000000
7.069143 97.000000
7.071207 97.000000
7.073271 97.000000
7.075335 98.000000
7.077399 98.000000
7.079463 99.000000
7.081527 100.000000
7.083591 101.000000
7.085655 102.000000
7.087719 102.000000
7.089783 102.000000
7.091847 103.000000
7.093911 103.000000
7.095975 105.000000
7.098039 106.000000
7.100103 107.000000
7.102167 108.000000
7.104231 109.000000
7.106295 110.000000
7.108359 111.000000
7.110423 113.000000
7.112487 116.000000
7.114551 118.000000
7.116615 120.000000
7.118679 123.000000
7.120743 137.000000
7.122807 163.000000
7.124871 173.000000
7.126935 209.000000
7.128999 217.000000
7.131063 218.000000
7.133127 187.000000
7.135191 187.000000
7.137255 165.000000
7.139319 158.000000
7.141383 166.000000
7.143447 200.000000
7.145511 202.000000
7.147575 286.000000
7.149639 397.000000
7.151703 419.000000
7.153767 421.000000
7.155831 353.000000
7.157895 326.000000
7.159959 376.000000
7.162023 392.000000
7.164087 447.000000
7.166151 490.000000
7.168215 491.000000
7.170279 470.000000
7.172343 409.000000
7.174407 370.000000
7.176471 356.000000
7.178535 401.000000
7.180599 418.000000
7.182663 381.000000
7.184727 310.000000
7.186791 395.000000
7.188854 711.000000
7.190918 804.000000
7.192982 659.000000
7.195046 517.000000
7.197110 436.000000
7.199174 398.000000
7.201238 233.000000
7.203302 163.000000
7.205366 144.000000
7.207430 137.000000
7.209494 136.000000
7.211558 131.000000
7.213622 130.000000
7.215686 129.000000
7.217750 129.000000
7.219814 131.000000
7.221878 134.000000
7.223942 140.000000
7.226006 141.000000
7.228070 142.000000
7.230134 143.000000
7.232198 212.000000
7.234262 298.000000
7.236326 539.000000
7.238390 645.000000
7.240454 646.000000
7.242518 383.000000
7.244582 299.000000
7.246646 290.000000
7.248710 265.000000
7.250774 187.000000
7.252838 169.000000
7.254902 164.000000
7.256966 237.000000
7.259030 433.000000
7.261094 481.000000
7.263158 502.000000
7.265222 583.000000
7.267286 524.000000
7.269350 475.000000
7.271414 258.000000
7.273478 172.000000
7.275542 138.000000
7.277606 132.000000
7.279670 139.000000
7.281734 179.000000
7.283798 180.000000
7.285862 179.000000
7.287926 288.000000
7.289990 292.000000
7.292054 227.000000
7.294118 195.000000
7.296182 121.000000
7.298246 106.000000
7.300310 104.000000
7.302374 100.000000
7.304438 97.000000
7.306502 95.000000
7.308566 95.000000
7.310630 94.000000
7.312693 93.000000
7.314757 90.000000
7.316821 90.000000
7.318885 90.000000
7.320949 90.000000
7.323013 90.000000
7.325077 90.000000
7.327141 90.000000
7.329205 90.000000
7.331269 90.000000
7.333333 90.000000
7.335397 89.000000
7.337461 89.000000
7.339525 89.000000
7.341589 89.000000
7.343653 89.000000
7.345717 89.000000
7.347781 89.000000
7.349845 90.000000
7.351909 90.000000
7.353973 89.000000
7.356037 87.000000
7.358101 87.000000
7.360165 87.000000
7.362229 87.000000
7.364293 87.000000
7.366357 87.000000
7.368421 87.000000
7.370485 87.000000
7.372549 87.000000
7.374613 87.000000
7.376677 87.000000
7.378741 86.000000
7.380805 85.000000
7.382869 85.000000
7.384933 85.000000
7.386997 85.000000
7.389061 85.000000
7.391125 86.000000
7.393189 86.000000
7.395253 86.000000
7.397317 86.000000
7.399381 86.000000
7.401445 86.000000
7.403509 86.000000
7.405573 86.000000
7.407637 86.000000
7.409701 86.000000
7.411765 86.000000
7.413829 86.000000
7.415893 87.000000
7.417957 88.000000
7.420021 88.000000
7.422085 88.000000
7.424149 88.000000
7.426213 88.000000
7.428277 88.000000
7.430341 87.000000
7.432405 86.000000
7.434469 86.000000
7.436533 85.000000
7.438596 85.000000
7.440660 85.000000
7.442724 85.000000
7.444788 86.000000
7.446852 86.000000
7.448916 86.000000
7.450980 86.000000
7.453044 86.000000
7.455108 86.000000
7.457172 86.000000
7.459236 86.000000
7.461300 85.000000
7.463364 84.000000
7.465428 84.000000
7.467492 84.000000
7.469556 84.000000
7.471620 84.000000
7.473684 84.000000
7.475748 84.000000
7.477812 84.000000
7.479876 84.000000
7.481940 84.000000
7.484004 84.000000
7.486068 84.000000
7.488132 84.000000
7.490196 84.000000
7.492260 84.000000
7.494324 84.000000
7.496388 84.000000
7.498452 84.000000
7.500516 84.000000
7.502580 84.000000
7.504644 84.000000
7.506708 84.000000
7.508772 84.000000
7.510836 84.000000
7.512900 84.000000
7.514964 84.000000
7.517028 84.000000
7.519092 84.000000
7.521156 85.000000
7.523220 85.000000
7.525284 86.000000
7.527348 86.000000
7.529412 86.000000
7.531476 86.000000
7.533540 86.000000
7.535604 86.000000
7.537668 86.000000
7.539732 85.000000
7.541796 85.000000
7.543860 84.000000
7.545924 84.000000
7.547988 84.000000
7.550052 84.000000
7.552116 84.000000
7.554180 84.000000
7.556244 84.000000
7.558308 84.000000
7.560372 84.000000
7.562436 84.000000
7.564499 83.000000
7.566563 83.000000
7.568627 83.000000
7.570691 83.000000
7.572755 83.000000
7.574819 83.000000
7.576883 83.000000
7.578947 83.000000
7.581011 83.000000
7.583075 83.000000
7.585139 83.000000
7.587203 83.000000
7.589267 83.000000
7.591331 83.000000
7.593395 83.000000
7.595459 83.000000
7.597523 83.000000
7.599587 83.000000
7.601651 83.000000
7.603715 83.000000
7.605779 83.000000
7.607843 83.000000
7.609907 83.000000
7.611971 83.000000
7.614035 83.000000
7.616099 83.000000
7.618163 83.000000
7.620227 83.000000
7.622291 83.000000
7.624355 83.000000
7.626419 83.000000
7.628483 83.000000
7.630547 83.000000
7.632611 83.000000
7.634675 83.000000
7.636739 83.000000
7.638803 83.000000
7.640867 83.000000
7.642931 83.000000
7.644995 83.000000
7.647059 83.000000
7.649123 83.000000
7.651187 83.000000
7.653251 83.000000
7.655315 83.000000
7.657379 83.000000
7.659443 83.000000
7.661507 83.000000
7.663571 83.000000
7.665635 83.000000
7.667699 83.000000
7.669763 83.000000
7.671827 83.000000
7.673891 83.000000
7.675955 83.000000
7.678019 83.000000
7.680083 83.000000
7.682147 83.000000
7.684211 83.000000
7.686275 83.000000
7.688338 83.000000
7.690402 83.000000
7.692466 83.000000
7.694530 83.000000
7.696594 83.000000
7.698658 83.000000
7.700722 83.000000
7.702786 83.000000
7.704850 83.000000
7.706914 83.000000
7.708978 83.000000
7.711042 83.000000
7.713106 83.000000
7.715170 83.000000
7.717234 83.000000
7.719298 83.000000
7.721362 83.000000
7.723426 83.000000
7.725490 83.000000
7.727554 83.000000
7.729618 83.000000
7.731682 83.000000
7.733746 83.000000
7.735810 82.000000
7.737874 82.000000
7.739938 82.000000
7.742002 82.000000
7.744066 82.000000
7.746130 82.000000
7.748194 82.000000
7.750258 82.000000
7.752322 82.000000
7.754386 82.000000
7.756450 82.000000
7.758514 82.000000
7.760578 82.000000
7.762642 82.000000
7.764706 82.000000
7.766770 82.000000
7.768834 82.000000
7.770898 82.000000
7.772962 82.000000
7.775026 82.000000
7.777090 83.000000
7.779154 83.000000
7.781218 83.000000
7.783282 83.000000
7.785346 83.000000
7.787410 83.000000
7.789474 83.000000
7.791538 83.000000
7.793602 83.000000
7.795666 83.000000
7.797730 83.000000
7.799794 83.000000
7.801858 83.000000
7.803922 83.000000
7.805986 83.000000
7.808050 82.000000
7.810114 82.000000
7.812178 82.000000
7.814241 82.000000
7.816305 82.000000
7.818369 82.000000
7.820433 82.000000
7.822497 82.000000
7.824561 82.000000
7.826625 82.000000
7.828689 82.000000
7.830753 82.000000
7.832817 82.000000
7.834881 82.000000
7.836945 82.000000
7.839009 82.000000
7.841073 82.000000
7.843137 82.000000
7.845201 82.000000
7.847265 82.000000
7.849329 82.000000
7.851393 82.000000
7.853457 82.000000
7.855521 82.000000
7.857585 82.000000
7.859649 82.000000
7.861713 82.000000
7.863777 82.000000
7.865841 82.000000
7.867905 82.000000
7.869969 82.000000
7.872033 82.000000
7.874097 82.000000
7.876161 82.000000
7.878225 82.000000
7.880289 82.000000
7.882353 82.000000
7.884417 82.000000
7.886481 82.000000
7.888545 83.000000
7.890609 83.000000
7.892673 83.000000
7.894737 83.000000
7.896801 83.000000
7.898865 83.000000
7.900929 83.000000
7.902993 83.000000
7.905057 83.000000
7.907121 82.000000
7.909185 82.000000
7.911249 82.000000
7.913313 82.000000
7.915377 82.000000
7.917441 81.000000
7.919505 81.000000
7.921569 81.000000
7.923633 81.000000
7.925697 81.000000
7.927761 82.000000
7.929825 82.000000
7.931889 82.000000
7.933953 82.000000
7.936017 82.000000
7.938080 82.000000
7.940144 82.000000
7.942208 82.000000
7.944272 82.000000
7.946336 82.000000
7.948400 82.000000
7.950464 82.000000
7.952528 82.000000
7.954592 82.000000
7.956656 82.000000
7.958720 82.000000
7.960784 82.000000
7.962848 82.000000
7.964912 82.000000
7.966976 82.000000
7.969040 82.000000
7.971104 82.000000
7.973168 82.000000
7.975232 82.000000
7.977296 82.000000
7.979360 82.000000
7.981424 82.000000
7.983488 82.000000
7.985552 82.000000
7.987616 82.000000
7.989680 82.000000
7.991744 82.000000
7.993808 82.000000
7.995872 82.000000
7.997936 82.000000
8.000000 82.000000
8.002064 82.000000
8.004128 82.000000
8.006192 82.000000
8.008256 82.000000
8.010320 82.000000
8.012384 82.000000
8.014448 82.000000
8.016512 82.000000
8.018576 82.000000
8.020640 82.000000
8.022704 82.000000
8.024768 82.000000
8.026832 82.000000
8.028896 82.000000
8.030960 82.000000
8.033024 82.000000
8.035088 82.000000
8.037152 82.000000
8.039216 82.000000
8.041280 82.000000
8.043344 82.000000
8.045408 82.000000
8.047472 82.000000
8.049536 82.000000
8.051600 82.000000
8.053664 82.000000
8.055728 82.000000
8.057792 82.000000
8.059856 81.000000
8.061920 81.000000
8.063983 81.000000
8.066047 81.000000
8.068111 81.000000
8.070175 81.000000
8.072239 81.000000
8.074303 81.000000
8.076367 81.000000
8.078431 81.000000
8.080495 82.000000
8.082559 82.000000
8.084623 82.000000
8.086687 82.000000
8.088751 82.000000
8.090815 82.000000
8.092879 82.000000
8.094943 82.000000
8.097007 82.000000
8.099071 82.000000
8.101135 82.000000
8.103199 82.000000
8.105263 82.000000
8.107327 82.000000
8.109391 82.000000
8.111455 82.000000
8.113519 82.000000
8.115583 82.000000
8.117647 82.000000
8.119711 81.000000
8.121775 81.000000
8.123839 81.000000
8.125903 81.000000
8.127967 81.000000
8.130031 82.000000
8.132095 82.000000
8.134159 82.000000
8.136223 82.000000
8.138287 82.000000
8.140351 82.000000
8.142415 82.000000
8.144479 82.000000
8.146543 82.000000
8.148607 82.000000
8.150671 82.000000
8.152735 82.000000
8.154799 82.000000
8.156863 82.000000
8.158927 82.000000
8.160991 82.000000
8.163055 82.000000
8.165119 82.000000
8.167183 82.000000
8.169247 82.000000
8.171311 82.000000
8.173375 82.000000
8.175439 82.000000
8.177503 82.000000
8.179567 82.000000
8.181631 81.000000
8.183695 81.000000
8.185759 81.000000
8.187822 81.000000
8.189886 81.000000
8.191950 81.000000
8.194014 81.000000
8.196078 81.000000
8.198142 81.000000
8.200206 82.000000
8.202270 82.000000
8.204334 82.000000
8.206398 82.000000
8.208462 82.000000
8.210526 82.000000
8.212590 82.000000
8.214654 82.000000
8.216718 82.000000
8.218782 82.000000
8.220846 82.000000
8.222910 82.000000
8.224974 82.000000
8.227038 82.000000
8.229102 82.000000
8.231166 81.000000
8.233230 81.000000
8.235294 81.000000
8.237358 81.000000
8.239422 81.000000
8.241486 82.000000
8.243550 82.000000
8.245614 82.000000
8.247678 82.000000
8.249742 82.000000
8.251806 82.000000
8.253870 82.000000
8.255934 82.000000
8.257998 82.000000
8.260062 82.000000
8.262126 82.000000
8.264190 82.000000
8.266254 82.000000
8.268318 82.000000
8.270382 82.000000
8.272446 82.000000
8.274510 82.000000
8.276574 82.000000
8.278638 82.000000
8.280702 82.000000
8.282766 82.000000
8.284830 82.000000
8.286894 82.000000
8.288958 82.000000
8.291022 82.000000
8.293086 82.000000
8.295150 82.000000
8.297214 82.000000
8.299278 82.000000
8.301342 82.000000
8.303406 82.000000
8.305470 82.000000
8.307534 82.000000
8.309598 82.000000
8.311662 81.000000
8.313725 81.000000
8.315789 81.000000
8.317853 81.000000
8.319917 81.000000
8.321981 81.000000
8.324045 81.000000
8.326109 81.000000
8.328173 81.000000
8.330237 81.000000
8.332301 82.000000
8.334365 82.000000
8.336429 82.000000
8.338493 82.000000
8.340557 82.000000
8.342621 82.000000
8.344685 82.000000
8.346749 82.000000
8.348813 82.000000
8.350877 82.000000
8.352941 81.000000
8.355005 81.000000
8.357069 81.000000
8.359133 81.000000
8.361197 81.000000
8.363261 81.000000
8.365325 81.000000
8.367389 81.000000
8.369453 81.000000
8.371517 81.000000
8.373581 81.000000
8.375645 81.000000
8.377709 81.000000
8.379773 81.000000
8.381837 81.000000
8.383901 81.000000
8.385965 81.000000
8.388029 81.000000
8.390093 81.000000
8.392157 81.000000
8.394221 81.000000
8.396285 81.000000
8.398349 81.000000
8.400413 81.000000
8.402477 82.000000
8.404541 82.000000
8.406605 82.000000
8.408669 82.000000
8.410733 82.000000
8.412797 82.000000
8.414861 82.000000
8.416925 82.000000
8.418989 82.000000
8.421053 82.000000
8.423117 81.000000
8.425181 81.000000
8.427245 81.000000
8.429309 81.000000
8.431373 81.000000
8.433437 82.000000
8.435501 82.000000
8.437564 82.000000
8.439628 82.000000
8.441692 82.000000
8.443756 82.000000
8.445820 82.000000
8.447884 82.000000
8.449948 82.000000
8.452012 82.000000
8.454076 81.000000
8.456140 81.000000
8.458204 81.000000
8.460268 81.000000
8.462332 81.000000
8.464396 81.000000
8.466460 81.000000
8.468524 81.000000
8.470588 81.000000
8.472652 81.000000
8.474716 81.000000
8.476780 81.000000
8.478844 81.000000
8.480908 81.000000
8.482972 81.000000
8.485036 81.000000
8.487100 81.000000
8.489164 81.000000
8.491228 81.000000
8.493292 81.000000
8.495356 81.000000
8.497420 81.000000
8.499484 81.000000
8.501548 81.000000
8.503612 82.000000
8.505676 82.000000
8.507740 82.000000
8.509804 82.000000
8.511868 82.000000
8.513932 82.000000
8.515996 82.000000
8.518060 82.000000
8.520124 82.000000
8.522188 82.000000
8.524252 81.000000
8.526316 81.000000
8.528380 81.000000
8.530444 81.000000
8.532508 81.000000
8.534572 82.000000
8.536636 82.000000
8.538700 82.000000
8.540764 82.000000
8.542828 82.000000
8.544892 82.000000
8.546956 82.000000
8.549020 82.000000
8.551084 82.000000
8.553148 82.000000
8.555212 81.000000
8.557276 81.000000
8.559340 81.000000
8.561404 81.000000
8.563467 81.000000
8.565531 82.000000
8.567595 82.000000
8.569659 82.000000
8.571723 82.000000
8.573787 82.000000
8.575851 82.000000
8.577915 82.000000
8.579979 82.000000
8.582043 82.000000
8.584107 81.000000
8.586171 81.000000
8.588235 81.000000
8.590299 81.000000
8.592363 81.000000
8.594427 81.000000
8.596491 81.000000
8.598555 81.000000
8.600619 81.000000
8.602683 81.000000
8.604747 81.000000
8.606811 81.000000
8.608875 81.000000
8.610939 81.000000
8.613003 81.000000
8.615067 81.000000
8.617131 81.000000
8.619195 81.000000
8.621259 81.000000
8.623323 81.000000
8.625387 82.000000
8.627451 82.000000
8.629515 82.000000
8.631579 82.000000
8.633643 82.000000
8.635707 82.000000
8.637771 82.000000
8.639835 82.000000
8.641899 82.000000
8.643963 82.000000
8.646027 81.000000
8.648091 81.000000
8.650155 81.000000
8.652219 81.000000
8.654283 81.000000
8.656347 81.000000
8.658411 81.000000
8.660475 81.000000
8.662539 81.000000
8.664603 81.000000
8.666667 81.000000
8.668731 81.000000
8.670795 81.000000
8.672859 81.000000
8.674923 81.000000
8.676987 81.000000
8.679051 81.000000
8.681115 81.000000
8.683179 81.000000
8.685243 81.000000
8.687307 81.000000
8.689370 81.000000
8.691434 81.000000
8.693498 81.000000
8.695562 82.000000
8.697626 82.000000
8.699690 82.000000
8.701754 82.000000
8.703818 82.000000
8.705882 82.000000
8.707946 82.000000
8.710010 82.000000
8.712074 82.000000
8.714138 82.000000
8.716202 81.000000
8.718266 81.000000
8.720330 81.000000
8.722394 81.000000
8.724458 81.000000
8.726522 81.000000
8.728586 81.000000
8.730650 81.000000
8.732714 81.000000
8.734778 81.000000
8.736842 81.000000
8.738906 81.000000
8.740970 81.000000
8.743034 81.000000
8.745098 81.000000
8.747162 81.000000
8.749226 81.000000
8.751290 81.000000
8.753354 81.000000
8.755418 81.000000
8.757482 82.000000
8.759546 82.000000
8.761610 83.000000
8.763674 83.000000
8.765738 83.000000
8.767802 83.000000
8.769866 83.000000
8.771930 82.000000
8.773994 82.000000
8.776058 81.000000
8.778122 81.000000
8.780186 81.000000
8.782250 81.000000
8.784314 81.000000
8.786378 81.000000
8.788442 81.000000
8.790506 81.000000
8.792570 81.000000
8.794634 81.000000
8.796698 81.000000
8.798762 81.000000
8.800826 81.000000
8.802890 81.000000
8.804954 81.000000
8.807018 81.000000
8.809082 81.000000
8.811146 81.000000
8.813209 81.000000
8.815273 81.000000
8.817337 82.000000
8.819401 82.000000
8.821465 82.000000
8.823529 82.000000
8.825593 82.000000
8.827657 82.000000
8.829721 82.000000
8.831785 82.000000
8.833849 82.000000
8.835913 82.000000
8.837977 81.000000
8.840041 81.000000
8.842105 81.000000
8.844169 81.000000
8.846233 81.000000
8.848297 81.000000
8.850361 81.000000
8.852425 81.000000
8.854489 81.000000
8.856553 81.000000
8.858617 81.000000
8.860681 81.000000
8.862745 81.000000
8.864809 81.000000
8.866873 81.000000
8.868937 81.000000
8.871001 81.000000
8.873065 81.000000
8.875129 81.000000
8.877193 81.000000
8.879257 81.000000
8.881321 81.000000
8.883385 81.000000
8.885449 81.000000
8.887513 81.000000
8.889577 81.000000
8.891641 81.000000
8.893705 81.000000
8.895769 81.000000
8.897833 81.000000
8.899897 81.000000
8.901961 81.000000
8.904025 81.000000
8.906089 81.000000
8.908153 81.000000
8.910217 81.000000
8.912281 81.000000
8.914345 81.000000
8.916409 81.000000
8.918473 81.000000
8.920537 81.000000
8.922601 81.000000
8.924665 81.000000
8.926729 81.000000
8.928793 81.000000
8.930857 81.000000
8.932921 81.000000
8.934985 81.000000
8.937049 81.000000
8.939112 82.000000
8.941176 82.000000
8.943240 82.000000
8.945304 82.000000
8.947368 82.000000
8.949432 82.000000
8.951496 82.000000
8.953560 82.000000
8.955624 82.000000
8.957688 81.000000
8.959752 81.000000
8.961816 81.000000
8.963880 81.000000
8.965944 81.000000
8.968008 81.000000
8.970072 81.000000
8.972136 81.000000
8.974200 81.000000
8.976264 81.000000
8.978328 81.000000
8.980392 81.000000
8.982456 81.000000
8.984520 81.000000
8.986584 81.000000
8.988648 81.000000
8.990712 81.000000
8.992776 81.000000
8.994840 81.000000
8.996904 81.000000
8.998968 81.000000
9.001032 81.000000
9.003096 81.000000
9.005160 81.000000
9.007224 81.000000
9.009288 81.000000
9.011352 81.000000
9.013416 81.000000
9.015480 81.000000
9.017544 81.000000
9.019608 81.000000
9.021672 81.000000
9.023736 81.000000
9.025800 81.000000
9.027864 81.000000
9.029928 81.000000
9.031992 81.000000
9.034056 81.000000
9.036120 81.000000
9.038184 81.000000
9.040248 82.000000
9.042312 82.000000
9.044376 83.000000
9.046440 83.000000
9.048504 83.000000
9.050568 83.000000
9.052632 83.000000
9.054696 82.000000
9.056760 82.000000
9.058824 81.000000
9.060888 81.000000
9.062951 81.000000
9.065015 81.000000
9.067079 81.000000
9.069143 82.000000
9.071207 82.000000
9.073271 82.000000
9.075335 83.000000
9.077399 83.000000
9.079463 83.000000
9.081527 83.000000
9.083591 83.000000
9.085655 82.000000
9.087719 82.000000
9.089783 81.000000
9.091847 81.000000
9.093911 81.000000
9.095975 81.000000
9.098039 81.000000
9.100103 81.000000
9.102167 81.000000
9.104231 81.000000
9.106295 81.000000
9.108359 81.000000
9.110423 81.000000
9.112487 81.000000
9.114551 81.000000
9.116615 81.000000
9.118679 81.000000
9.120743 81.000000
9.122807 81.000000
9.124871 81.000000
9.126935 81.000000
9.128999 81.000000
9.131063 81.000000
9.133127 81.000000
9.135191 81.000000
9.137255 81.000000
9.139319 81.000000
9.141383 81.000000
9.143447 81.000000
9.145511 81.000000
9.147575 81.000000
9.149639 81.000000
9.151703 81.000000
9.153767 81.000000
9.155831 81.000000
9.157895 81.000000
9.159959 81.000000
9.162023 81.000000
9.164087 81.000000
9.166151 81.000000
9.168215 81.000000
9.170279 81.000000
9.172343 81.000000
9.174407 81.000000
9.176471 81.000000
9.178535 81.000000
9.180599 81.000000
9.182663 81.000000
9.184727 81.000000
9.186791 81.000000
9.188854 81.000000
9.190918 81.000000
9.192982 81.000000
9.195046 81.000000
9.197110 81.000000
9.199174 81.000000
9.201238 81.000000
9.203302 81.000000
9.205366 81.000000
9.207430 81.000000
9.209494 81.000000
9.211558 81.000000
9.213622 81.000000
9.215686 81.000000
9.217750 81.000000
9.219814 81.000000
9.221878 81.000000
9.223942 81.000000
9.226006 81.000000
9.228070 81.000000
9.230134 81.000000
9.232198 81.000000
9.234262 81.000000
9.236326 81.000000
9.238390 81.000000
9.240454 81.000000
9.242518 81.000000
9.244582 81.000000
9.246646 81.000000
9.248710 81.000000
9.250774 81.000000
9.252838 81.000000
9.254902 81.000000
9.256966 81.000000
9.259030 81.000000
9.261094 81.000000
9.263158 81.000000
9.265222 81.000000
9.267286 81.000000
9.269350 81.000000
9.271414 82.000000
9.273478 82.000000
9.275542 82.000000
9.277606 82.000000
9.279670 82.000000
9.281734 82.000000
9.283798 82.000000
9.285862 82.000000
9.287926 82.000000
9.289990 82.000000
9.292054 81.000000
9.294118 81.000000
9.296182 81.000000
9.298246 81.000000
9.300310 81.000000
9.302374 81.000000
9.304438 81.000000
9.306502 81.000000
9.308566 81.000000
9.310630 81.000000
9.312693 81.000000
9.314757 81.000000
9.316821 81.000000
9.318885 81.000000
9.320949 81.000000
9.323013 81.000000
9.325077 81.000000
9.327141 81.000000
9.329205 81.000000
9.331269 81.000000
9.333333 81.000000
9.335397 81.000000
9.337461 81.000000
9.339525 81.000000
9.341589 81.000000
9.343653 81.000000
9.345717 81.000000
9.347781 81.000000
9.349845 81.000000
9.351909 82.000000
9.353973 82.000000
9.356037 82.000000
9.358101 82.000000
9.360165 82.000000
9.362229 82.000000
9.364293 82.000000
9.366357 82.000000
9.368421 82.000000
9.370485 82.000000
9.372549 81.000000
9.374613 81.000000
9.376677 81.000000
9.378741 81.000000
9.380805 81.000000
9.382869 81.000000
9.384933 81.000000
9.386997 81.000000
9.389061 81.000000
9.391125 81.000000
9.393189 81.000000
9.395253 81.000000
9.397317 81.000000
9.399381 81.000000
9.401445 81.000000
9.403509 81.000000
9.405573 81.000000
9.407637 81.000000
9.409701 81.000000
9.411765 81.000000
9.413829 81.000000
9.415893 81.000000
9.417957 81.000000
9.420021 81.000000
9.422085 81.000000
9.424149 81.000000
9.426213 81.000000
9.428277 81.000000
9.430341 81.000000
9.432405 81.000000
9.434469 81.000000
9.436533 81.000000
9.438596 81.000000
9.440660 81.000000
9.442724 81.000000
9.444788 81.000000
9.446852 81.000000
9.448916 81.000000
9.450980 81.000000
9.453044 81.000000
9.455108 81.000000
9.457172 81.000000
9.459236 81.000000
9.461300 81.000000
9.463364 81.000000
9.465428 81.000000
9.467492 81.000000
9.469556 81.000000
9.471620 81.000000
9.473684 81.000000
9.475748 81.000000
9.477812 81.000000
9.479876 81.000000
9.481940 81.000000
9.484004 81.000000
9.486068 81.000000
9.488132 81.000000
9.490196 81.000000
9.492260 81.000000
9.494324 81.000000
9.496388 81.000000
9.498452 81.000000
9.500516 81.000000
9.502580 81.000000
9.504644 81.000000
9.506708 81.000000
9.508772 81.000000
9.510836 81.000000
9.512900 81.000000
9.514964 81.000000
9.517028 81.000000
9.519092 81.000000
9.521156 81.000000
9.523220 81.000000
9.525284 81.000000
9.527348 81.000000
9.529412 81.000000
9.531476 81.000000
9.533540 81.000000
9.535604 81.000000
9.537668 81.000000
9.539732 81.000000
9.541796 81.000000
9.543860 81.000000
9.545924 81.000000
9.547988 81.000000
9.550052 81.000000
9.552116 81.000000
9.554180 81.000000
9.556244 81.000000
9.558308 81.000000
9.560372 81.000000
9.562436 81.000000
9.564499 81.000000
9.566563 81.000000
9.568627 81.000000
9.570691 81.000000
9.572755 81.000000
9.574819 81.000000
9.576883 81.000000
9.578947 81.000000
9.581011 81.000000
9.583075 81.000000
9.585139 81.000000
9.587203 81.000000
9.589267 81.000000
9.591331 81.000000
9.593395 81.000000
9.595459 81.000000
9.597523 81.000000
9.599587 81.000000
9.601651 81.000000
9.603715 81.000000
9.605779 81.000000
9.607843 81.000000
9.609907 81.000000
9.611971 81.000000
9.614035 81.000000
9.616099 81.000000
9.618163 81.000000
9.620227 81.000000
9.622291 81.000000
9.624355 81.000000
9.626419 81.000000
9.628483 81.000000
9.630547 81.000000
9.632611 81.000000
9.634675 81.000000
9.636739 81.000000
9.638803 81.000000
9.640867 81.000000
9.642931 81.000000
9.644995 81.000000
9.647059 81.000000
9.649123 81.000000
9.651187 81.000000
9.653251 81.000000
9.655315 81.000000
9.657379 81.000000
9.659443 81.000000
9.661507 81.000000
9.663571 81.000000
9.665635 81.000000
9.667699 81.000000
9.669763 81.000000
9.671827 81.000000
9.673891 81.000000
9.675955 81.000000
9.678019 81.000000
9.680083 81.000000
9.682147 81.000000
9.684211 81.000000
9.686275 81.000000
9.688338 81.000000
9.690402 81.000000
9.692466 81.000000
9.694530 81.000000
9.696594 81.000000
9.698658 81.000000
9.700722 81.000000
9.702786 81.000000
9.704850 81.000000
9.706914 81.000000
9.708978 81.000000
9.711042 81.000000
9.713106 81.000000
9.715170 81.000000
9.717234 81.000000
9.719298 81.000000
9.721362 81.000000
9.723426 81.000000
9.725490 81.000000
9.727554 81.000000
9.729618 81.000000
9.731682 81.000000
9.733746 81.000000
9.735810 81.000000
9.737874 81.000000
9.739938 81.000000
9.742002 81.000000
9.744066 81.000000
9.746130 81.000000
9.748194 81.000000
9.750258 81.000000
9.752322 81.000000
9.754386 81.000000
9.756450 81.000000
9.758514 81.000000
9.760578 81.000000
9.762642 81.000000
9.764706 81.000000
9.766770 81.000000
9.768834 81.000000
9.770898 81.000000
9.772962 81.000000
9.775026 81.000000
9.777090 81.000000
9.779154 81.000000
9.781218 81.000000
9.783282 81.000000
9.785346 81.000000
9.787410 81.000000
9.789474 81.000000
9.791538 81.000000
9.793602 81.000000
9.795666 81.000000
9.797730 81.000000
9.799794 81.000000
9.801858 81.000000
9.803922 81.000000
9.805986 81.000000
9.808050 81.000000
9.810114 81.000000
9.812178 81.000000
9.814241 81.000000
9.816305 81.000000
9.818369 81.000000
9.820433 81.000000
9.822497 81.000000
9.824561 81.000000
9.826625 81.000000
9.828689 81.000000
9.830753 81.000000
9.832817 81.000000
9.834881 81.000000
9.836945 81.000000
9.839009 81.000000
9.841073 81.000000
9.843137 81.000000
9.845201 81.000000
9.847265 81.000000
9.849329 81.000000
9.851393 81.000000
9.853457 81.000000
9.855521 81.000000
9.857585 81.000000
9.859649 81.000000
9.861713 81.000000
9.863777 81.000000
9.865841 81.000000
9.867905 81.000000
9.869969 81.000000
9.872033 81.000000
9.874097 81.000000
9.876161 81.000000
9.878225 81.000000
9.880289 81.000000
9.882353 81.000000
9.884417 81.000000
9.886481 81.000000
9.888545 81.000000
9.890609 81.000000
9.892673 81.000000
9.894737 81.000000
9.896801 81.000000
9.898865 81.000000
9.900929 81.000000
9.902993 81.000000
9.905057 81.000000
9.907121 81.000000
9.909185 81.000000
9.911249 81.000000
9.913313 81.000000
9.915377 81.000000
9.917441 81.000000
9.919505 81.000000
9.921569 81.000000
9.923633 81.000000
9.925697 81.000000
9.927761 82.000000
9.929825 82.000000
9.931889 82.000000
9.933953 82.000000
9.936017 82.000000
9.938080 82.000000
9.940144 82.000000
9.942208 82.000000
9.944272 82.000000
9.946336 82.000000
9.948400 81.000000
9.950464 81.000000
9.952528 81.000000
9.954592 81.000000
9.956656 81.000000
9.958720 81.000000
9.960784 81.000000
9.962848 81.000000
9.964912 81.000000
9.966976 81.000000
9.969040 81.000000
9.971104 81.000000
9.973168 81.000000
9.975232 81.000000
9.977296 81.000000
9.979360 81.000000
9.981424 81.000000
9.983488 81.000000
9.985552 81.000000
9.987616 81.000000
9.989680 81.000000
9.991744 81.000000
9.993808 81.000000
9.995872 81.000000
9.997936 81.000000
10.000000 81.000000
10.002064 81.000000
10.004128 81.000000
10.006192 81.000000
10.008256 81.000000
10.010320 81.000000
10.012384 81.000000
10.014448 81.000000
10.016512 81.000000
10.018576 81.000000
10.020640 81.000000
10.022704 81.000000
10.024768 81.000000
10.026832 81.000000
10.028896 81.000000
10.030960 81.000000
10.033024 81.000000
10.035088 81.000000
10.037152 81.000000
10.039216 81.000000
10.041280 81.000000
10.043344 81.000000
10.045408 81.000000
10.047472 81.000000
10.049536 81.000000
10.051600 81.000000
10.053664 81.000000
10.055728 81.000000
10.057792 81.000000
10.059856 81.000000
10.061920 81.000000
10.063983 81.000000
10.066047 81.000000
10.068111 81.000000
10.070175 81.000000
10.072239 81.000000
10.074303 81.000000
10.076367 81.000000
10.078431 81.000000
10.080495 81.000000
10.082559 81.000000
10.084623 81.000000
10.086687 81.000000
10.088751 81.000000
10.090815 81.000000
10.092879 81.000000
10.094943 81.000000
10.097007 81.000000
10.099071 81.000000
10.101135 81.000000
10.103199 81.000000
10.105263 81.000000
10.107327 81.000000
10.109391 81.000000
10.111455 81.000000
10.113519 81.000000
10.115583 81.000000
10.117647 81.000000
10.119711 81.000000
10.121775 81.000000
10.123839 81.000000
10.125903 81.000000
10.127967 81.000000
10.130031 81.000000
10.132095 81.000000
10.134159 81.000000
10.136223 81.000000
10.138287 81.000000
10.140351 81.000000
10.142415 81.000000
10.144479 81.000000
10.146543 81.000000
10.148607 81.000000
10.150671 81.000000
10.152735 81.000000
10.154799 81.000000
10.156863 81.000000
10.158927 81.000000
10.160991 81.000000
10.163055 81.000000
10.165119 81.000000
10.167183 81.000000
10.169247 81.000000
10.171311 81.000000
10.173375 81.000000
10.175439 81.000000
10.177503 81.000000
10.179567 81.000000
10.181631 81.000000
10.183695 81.000000
10.185759 81.000000
10.187822 81.000000
10.189886 81.000000
10.191950 81.000000
10.194014 81.000000
10.196078 81.000000
10.198142 81.000000
10.200206 81.000000
10.202270 81.000000
10.204334 81.000000
10.206398 81.000000
10.208462 81.000000
10.210526 81.000000
10.212590 81.000000
10.214654 81.000000
10.216718 81.000000
10.218782 81.000000
10.220846 81.000000
10.222910 81.000000
10.224974 81.000000
10.227038 81.000000
10.229102 81.000000
10.231166 81.000000
10.233230 81.000000
10.235294 81.000000
10.237358 81.000000
10.239422 81.000000
10.241486 81.000000
10.243550 81.000000
10.245614 81.000000
10.247678 81.000000
10.249742 81.000000
10.251806 81.000000
10.253870 81.000000
10.255934 81.000000
10.257998 81.000000
10.260062 81.000000
10.262126 81.000000
10.264190 81.000000
10.266254 81.000000
10.268318 81.000000
10.270382 81.000000
10.272446 81.000000
10.274510 81.000000
10.276574 81.000000
10.278638 81.000000
10.280702 81.000000
10.282766 81.000000
10.284830 81.000000
10.286894 81.000000
10.288958 81.000000
10.291022 81.000000
10.293086 81.000000
10.295150 81.000000
10.297214 81.000000
10.299278 81.000000
10.301342 81.000000
10.303406 81.000000
10.305470 81.000000
10.307534 81.000000
10.309598 81.000000
10.311662 81.000000
10.313725 81.000000
10.315789 81.000000
10.317853 81.000000
10.319917 81.000000
10.321981 81.000000
10.324045 81.000000
10.326109 81.000000
10.328173 81.000000
10.330237 81.000000
10.332301 81.000000
10.334365 81.000000
10.336429 81.000000
10.338493 81.000000
10.340557 81.000000
10.342621 81.000000
10.344685 81.000000
10.346749 81.000000
10.348813 81.000000
10.350877 81.000000
10.352941 81.000000
10.355005 81.000000
10.357069 81.000000
10.359133 81.000000
10.361197 81.000000
10.363261 81.000000
10.365325 81.000000
10.367389 81.000000
10.369453 81.000000
10.371517 81.000000
10.373581 81.000000
10.375645 81.000000
10.377709 81.000000
10.379773 81.000000
10.381837 81.000000
10.383901 81.000000
10.385965 81.000000
10.388029 81.000000
10.390093 81.000000
10.392157 81.000000
10.394221 81.000000
10.396285 81.000000
10.398349 81.000000
10.400413 81.000000
10.402477 81.000000
10.404541 81.000000
10.406605 81.000000
10.408669 81.000000
10.410733 81.000000
10.412797 81.000000
10.414861 81.000000
10.416925 81.000000
10.418989 81.000000
10.421053 81.000000
10.423117 81.000000
10.425181 81.000000
10.427245 81.000000
10.429309 81.000000
10.431373 81.000000
10.433437 81.000000
10.435501 81.000000
10.437564 81.000000
10.439628 81.000000
10.441692 81.000000
10.443756 81.000000
10.445820 81.000000
10.447884 81.000000
10.449948 81.000000
10.452012 81.000000
10.454076 81.000000
10.456140 81.000000
10.458204 81.000000
10.460268 81.000000
10.462332 81.000000
10.464396 81.000000
10.466460 81.000000
10.468524 81.000000
10.470588 81.000000
10.472652 81.000000
10.474716 81.000000
10.476780 81.000000
10.478844 81.000000
10.480908 81.000000
10.482972 81.000000
10.485036 81.000000
10.487100 81.000000
10.489164 81.000000
10.491228 81.000000
10.493292 81.000000
10.495356 81.000000
10.497420 81.000000
10.499484 81.000000
10.501548 81.000000
10.503612 81.000000
10.505676 81.000000
10.507740 81.000000
10.509804 81.000000
10.511868 81.000000
10.513932 81.000000
10.515996 81.000000
10.518060 81.000000
10.520124 81.000000
10.522188 81.000000
10.524252 81.000000
10.526316 81.000000
10.528380 81.000000
10.530444 81.000000
10.532508 81.000000
10.534572 81.000000
10.536636 81.000000
10.538700 81.000000
10.540764 81.000000
10.542828 81.000000
10.544892 81.000000
10.546956 81.000000
10.549020 81.000000
10.551084 81.000000
10.553148 81.000000
10.555212 81.000000
10.557276 81.000000
10.559340 81.000000
10.561404 81.000000
10.563467 81.000000
10.565531 81.000000
10.567595 81.000000
10.569659 81.000000
10.571723 81.000000
10.573787 81.000000
10.575851 81.000000
10.577915 81.000000
10.579979 81.000000
10.582043 81.000000
10.584107 81.000000
10.586171 81.000000
10.588235 81.000000
10.590299 81.000000
10.592363 81.000000
10.594427 81.000000
10.596491 81.000000
10.598555 81.000000
10.600619 81.000000
10.602683 81.000000
10.604747 81.000000
10.606811 81.000000
10.608875 81.000000
10.610939 81.000000
10.613003 81.000000
10.615067 81.000000
10.617131 81.000000
10.619195 81.000000
10.621259 81.000000
10.623323 81.000000
10.625387 81.000000
10.627451 81.000000
10.629515 81.000000
10.631579 81.000000
10.633643 81.000000
10.635707 81.000000
10.637771 81.000000
10.639835 81.000000
10.641899 81.000000
10.643963 81.000000
10.646027 81.000000
10.648091 81.000000
10.650155 81.000000
10.652219 81.000000
10.654283 81.000000
10.656347 81.000000
10.658411 81.000000
10.660475 81.000000
10.662539 81.000000
10.664603 81.000000
10.666667 81.000000
10.668731 81.000000
10.670795 81.000000
10.672859 81.000000
10.674923 81.000000
10.676987 81.000000
10.679051 81.000000
10.681115 81.000000
10.683179 81.000000
10.685243 81.000000
10.687307 81.000000
10.689370 81.000000
10.691434 81.000000
10.693498 81.000000
10.695562 81.000000
10.697626 81.000000
10.699690 81.000000
10.701754 81.000000
10.703818 81.000000
10.705882 81.000000
10.707946 81.000000
10.710010 81.000000
10.712074 81.000000
10.714138 81.000000
10.716202 81.000000
10.718266 81.000000
10.720330 81.000000
10.722394 81.000000
10.724458 81.000000
10.726522 81.000000
10.728586 81.000000
10.730650 81.000000
10.732714 81.000000
10.734778 81.000000
10.736842 81.000000
10.738906 81.000000
10.740970 81.000000
10.743034 81.000000
10.745098 81.000000
10.747162 81.000000
10.749226 81.000000
10.751290 81.000000
10.753354 81.000000
10.755418 81.000000
10.757482 81.000000
10.759546 81.000000
10.761610 81.000000
10.763674 81.000000
10.765738 81.000000
10.767802 81.000000
10.769866 81.000000
10.771930 81.000000
10.773994 81.000000
10.776058 81.000000
10.778122 81.000000
10.780186 81.000000
10.782250 81.000000
10.784314 81.000000
10.786378 81.000000
10.788442 81.000000
10.790506 81.000000
10.792570 81.000000
10.794634 81.000000
10.796698 81.000000
10.798762 81.000000
10.800826 81.000000
10.802890 81.000000
10.804954 81.000000
10.807018 81.000000
10.809082 81.000000
10.811146 81.000000
10.813209 81.000000
10.815273 81.000000
10.817337 81.000000
10.819401 81.000000
10.821465 81.000000
10.823529 81.000000
10.825593 81.000000
10.827657 81.000000
10.829721 81.000000
10.831785 81.000000
10.833849 81.000000
10.835913 81.000000
10.837977 81.000000
10.840041 81.000000
10.842105 81.000000
10.844169 81.000000
10.846233 81.000000
10.848297 81.000000
10.850361 81.000000
10.852425 81.000000
10.854489 81.000000
10.856553 81.000000
10.858617 81.000000
10.860681 81.000000
10.862745 81.000000
10.864809 81.000000
10.866873 81.000000
10.868937 81.000000
10.871001 81.000000
10.873065 81.000000
10.875129 81.000000
10.877193 81.000000
10.879257 81.000000
10.881321 81.000000
10.883385 81.000000
10.885449 81.000000
10.887513 81.000000
10.889577 81.000000
10.891641 81.000000
10.893705 81.000000
10.895769 81.000000
10.897833 81.000000
10.899897 81.000000
10.901961 81.000000
10.904025 81.000000
10.906089 81.000000
10.908153 81.000000
10.910217 81.000000
10.912281 81.000000
10.914345 81.000000
10.916409 81.000000
10.918473 81.000000
10.920537 81.000000
10.922601 81.000000
10.924665 81.000000
10.926729 81.000000
10.928793 81.000000
10.930857 81.000000
10.932921 81.000000
10.934985 81.000000
10.937049 81.000000
10.939112 81.000000
10.941176 81.000000
10.943240 81.000000
10.945304 81.000000
10.947368 81.000000
10.949432 81.000000
10.951496 81.000000
10.953560 81.000000
10.955624 81.000000
10.957688 81.000000
10.959752 81.000000
10.961816 81.000000
10.963880 81.000000
10.965944 81.000000
10.968008 81.000000
10.970072 81.000000
10.972136 81.000000
10.974200 81.000000
10.976264 81.000000
10.978328 81.000000
10.980392 81.000000
10.982456 81.000000
10.984520 81.000000
10.986584 81.000000
10.988648 81.000000
10.990712 81.000000
10.992776 81.000000
10.994840 81.000000
10.996904 81.000000
10.998968 81.000000
11.001032 81.000000
11.003096 81.000000
11.005160 81.000000
11.007224 81.000000
11.009288 81.000000
11.011352 81.000000
11.013416 81.000000
11.015480 81.000000
11.017544 81.000000
11.019608 81.000000
11.021672 81.000000
11.023736 81.000000
11.025800 81.000000
11.027864 81.000000
11.029928 81.000000
11.031992 81.000000
11.034056 81.000000
11.036120 81.000000
11.038184 81.000000
11.040248 81.000000
11.042312 81.000000
11.044376 81.000000
11.046440 81.000000
11.048504 81.000000
11.050568 81.000000
11.052632 81.000000
11.054696 81.000000
11.056760 81.000000
11.058824 81.000000
11.060888 81.000000
11.062951 81.000000
11.065015 81.000000
11.067079 81.000000
11.069143 81.000000
11.071207 81.000000
11.073271 81.000000
11.075335 81.000000
11.077399 81.000000
11.079463 81.000000
11.081527 81.000000
11.083591 81.000000
11.085655 81.000000
11.087719 81.000000
11.089783 81.000000
11.091847 81.000000
11.093911 81.000000
11.095975 81.000000
11.098039 81.000000
11.100103 81.000000
11.102167 81.000000
11.104231 81.000000
11.106295 81.000000
11.108359 81.000000
11.110423 82.000000
11.112487 82.000000
11.114551 82.000000
11.116615 82.000000
11.118679 82.000000
11.120743 82.000000
11.122807 82.000000
11.124871 82.000000
11.126935 82.000000
11.128999 82.000000
11.131063 81.000000
11.133127 81.000000
11.135191 81.000000
11.137255 81.000000
11.139319 81.000000
11.141383 81.000000
11.143447 81.000000
11.145511 81.000000
11.147575 81.000000
11.149639 81.000000
11.151703 81.000000
11.153767 81.000000
11.155831 81.000000
11.157895 81.000000
11.159959 81.000000
11.162023 81.000000
11.164087 81.000000
11.166151 81.000000
11.168215 81.000000
11.170279 81.000000
11.172343 81.000000
11.174407 81.000000
11.176471 81.000000
11.178535 81.000000
11.180599 81.000000
11.182663 81.000000
11.184727 81.000000
11.186791 81.000000
11.188854 81.000000
11.190918 81.000000
11.192982 81.000000
11.195046 81.000000
11.197110 81.000000
11.199174 81.000000
11.201238 81.000000
11.203302 81.000000
11.205366 81.000000
11.207430 81.000000
11.209494 81.000000
11.211558 81.000000
11.213622 81.000000
11.215686 81.000000
11.217750 81.000000
11.219814 81.000000
11.221878 81.000000
11.223942 81.000000
11.226006 81.000000
11.228070 81.000000
11.230134 81.000000
11.232198 81.000000
11.234262 81.000000
11.236326 81.000000
11.238390 81.000000
11.240454 81.000000
11.242518 81.000000
11.244582 81.000000
11.246646 81.000000
11.248710 81.000000
11.250774 81.000000
11.252838 81.000000
11.254902 81.000000
11.256966 81.000000
11.259030 81.000000
11.261094 81.000000
11.263158 81.000000
11.265222 81.000000
11.267286 81.000000
11.269350 81.000000
11.271414 81.000000
11.273478 81.000000
11.275542 81.000000
11.277606 81.000000
11.279670 81.000000
11.281734 81.000000
11.283798 81.000000
11.285862 81.000000
11.287926 81.000000
11.289990 81.000000
11.292054 81.000000
11.294118 81.000000
11.296182 81.000000
11.298246 81.000000
11.300310 81.000000
11.302374 81.000000
11.304438 81.000000
11.306502 81.000000
11.308566 81.000000
11.310630 81.000000
11.312693 81.000000
11.314757 81.000000
11.316821 81.000000
11.318885 81.000000
11.320949 81.000000
11.323013 81.000000
11.325077 81.000000
11.327141 81.000000
11.329205 81.000000
11.331269 81.000000
11.333333 81.000000
11.335397 81.000000
11.337461 81.000000
11.339525 81.000000
11.341589 81.000000
11.343653 81.000000
11.345717 81.000000
11.347781 81.000000
11.349845 81.000000
11.351909 81.000000
11.353973 81.000000
11.356037 81.000000
11.358101 81.000000
11.360165 81.000000
11.362229 81.000000
11.364293 81.000000
11.366357 81.000000
11.368421 81.000000
11.370485 81.000000
11.372549 82.000000
11.374613 82.000000
11.376677 82.000000
11.378741 82.000000
11.380805 82.000000
11.382869 82.000000
11.384933 82.000000
11.386997 82.000000
11.389061 82.000000
11.391125 82.000000
11.393189 81.000000
11.395253 81.000000
11.397317 81.000000
11.399381 81.000000
11.401445 81.000000
11.403509 81.000000
11.405573 81.000000
11.407637 81.000000
11.409701 81.000000
11.411765 81.000000
11.413829 81.000000
11.415893 81.000000
11.417957 81.000000
11.420021 81.000000
11.422085 81.000000
11.424149 81.000000
11.426213 81.000000
11.428277 81.000000
11.430341 81.000000
11.432405 81.000000
11.434469 81.000000
11.436533 81.000000
11.438596 81.000000
11.440660 81.000000
11.442724 81.000000
11.444788 81.000000
11.446852 81.000000
11.448916 81.000000
11.450980 81.000000
11.453044 81.000000
11.455108 81.000000
11.457172 81.000000
11.459236 81.000000
11.461300 81.000000
11.463364 81.000000
11.465428 81.000000
11.467492 81.000000
11.469556 81.000000
11.471620 81.000000
11.473684 81.000000
11.475748 81.000000
11.477812 81.000000
11.479876 81.000000
11.481940 81.000000
11.484004 81.000000
11.486068 81.000000
11.488132 81.000000
11.490196 81.000000
11.492260 81.000000
11.494324 81.000000
11.496388 81.000000
11.498452 81.000000
11.500516 81.000000
11.502580 81.000000
11.504644 81.000000
11.506708 81.000000
11.508772 81.000000
11.510836 81.000000
11.512900 81.000000
11.514964 81.000000
11.517028 81.000000
11.519092 81.000000
11.521156 81.000000
11.523220 81.000000
11.525284 81.000000
11.527348 81.000000
11.529412 81.000000
11.531476 81.000000
11.533540 81.000000
11.535604 81.000000
11.537668 81.000000
11.539732 81.000000
11.541796 81.000000
11.543860 81.000000
11.545924 81.000000
11.547988 81.000000
11.550052 81.000000
11.552116 81.000000
11.554180 81.000000
11.556244 81.000000
11.558308 81.000000
11.560372 81.000000
11.562436 81.000000
11.564499 81.000000
11.566563 81.000000
11.568627 81.000000
11.570691 81.000000
11.572755 81.000000
11.574819 81.000000
11.576883 81.000000
11.578947 81.000000
11.581011 81.000000
11.583075 81.000000
11.585139 81.000000
11.587203 81.000000
11.589267 81.000000
11.591331 81.000000
11.593395 81.000000
11.595459 81.000000
11.597523 81.000000
11.599587 81.000000
11.601651 81.000000
11.603715 81.000000
11.605779 81.000000
11.607843 81.000000
11.609907 81.000000
11.611971 81.000000
11.614035 81.000000
11.616099 81.000000
11.618163 81.000000
11.620227 81.000000
11.622291 81.000000
11.624355 81.000000
11.626419 81.000000
11.628483 81.000000
11.630547 81.000000
11.632611 81.000000
11.634675 81.000000
11.636739 81.000000
11.638803 81.000000
11.640867 81.000000
11.642931 81.000000
11.644995 81.000000
11.647059 81.000000
11.649123 81.000000
11.651187 81.000000
11.653251 81.000000
11.655315 81.000000
11.657379 81.000000
11.659443 81.000000
11.661507 81.000000
11.663571 81.000000
11.665635 81.000000
11.667699 81.000000
11.669763 81.000000
11.671827 81.000000
11.673891 81.000000
11.675955 81.000000
11.678019 81.000000
11.680083 81.000000
11.682147 81.000000
11.684211 81.000000
11.686275 81.000000
11.688338 81.000000
11.690402 81.000000
11.692466 81.000000
11.694530 81.000000
11.696594 81.000000
11.698658 81.000000
11.700722 81.000000
11.702786 81.000000
11.704850 81.000000
11.706914 81.000000
11.708978 81.000000
11.711042 81.000000
11.713106 81.000000
11.715170 81.000000
11.717234 81.000000
11.719298 81.000000
11.721362 81.000000
11.723426 81.000000
11.725490 81.000000
11.727554 81.000000
11.729618 81.000000
11.731682 81.000000
11.733746 81.000000
11.735810 81.000000
11.737874 81.000000
11.739938 81.000000
11.742002 81.000000
11.744066 81.000000
11.746130 81.000000
11.748194 81.000000
11.750258 81.000000
11.752322 81.000000
11.754386 81.000000
11.756450 81.000000
11.758514 81.000000
11.760578 81.000000
11.762642 81.000000
11.764706 81.000000
11.766770 81.000000
##END=
